4235
XYZ file generated by Avogadro.
H      2.7474430000   10.0732660000  -13.0107080000
H      9.7204140000   10.2219740000   -8.6104040000
H     -4.3315510000   17.6651130000    5.6568970000
H     -8.6430400000   17.8666710000    7.2739380000
H     -6.3211830000   17.6725220000    6.6682260000
H     -8.1515110000   17.6878160000    5.0200360000
H      1.7847170000   10.4408450000   10.7377170000
H    -10.4572530000   17.8068830000    4.9207740000
H      9.1139250000   10.4669180000    6.8995200000
H     -9.2708970000   17.5857110000    2.8320540000
H      8.3741790000   17.6773240000   -1.0118700000
H     12.3026940000   17.9225670000   -0.8636590000
C      0.8882220000   21.4494720000   -5.2263620000
H      8.6012450000   17.6815740000   -3.0374250000
H     -7.7908290000   17.5412360000    1.1650170000
H     10.3257970000   17.7124030000   -2.0715630000
H      8.0055730000   17.6433910000   -4.8897750000
H    -12.1246810000   17.7084730000   -0.3683460000
H     12.1400520000   17.9150600000   -3.6438320000
H     -9.9547210000   17.5399770000    0.6627450000
H     10.0113560000   17.7244190000   -4.5115790000
H    -10.3008000000   17.5517330000   -1.7713950000
H    -12.0009240000   17.6626590000   -3.3229780000
H      8.8491670000   17.6213550000   -6.6752410000
H     -8.5488290000   17.5363840000   -0.7265380000
H      6.6454890000   17.5635400000   -6.4052850000
H     -9.7538790000   17.4634030000   -4.1669770000
H      9.7510320000   17.7675200000   -8.8127640000
H     -8.4669010000   17.5040780000   -2.6702930000
H      5.5216450000   17.5617730000   -8.1048760000
H    -11.1927030000   17.5904010000   -5.9869110000
H      3.8784810000   17.5280400000   -9.1460810000
H     -9.8986520000   17.5979090000   -8.4528940000
H      7.8484810000   17.7498150000  -10.8445880000
H      5.6584050000   17.5843160000  -10.1432770000
H     -8.8931970000   17.4369370000   -6.2712820000
H      3.3782440000   17.4893250000  -11.0568410000
H     -7.5991300000   17.4693290000   -8.3598310000
H      6.5935330000   23.4249630000   -2.3973310000
H     -6.9261200000   17.4559680000   -6.4304090000
H      5.9378400000   23.3820840000   -4.4791330000
H     -5.6425650000   17.4097660000   -9.8447560000
H      2.6131100000   23.2984260000   -7.5584780000
H     -5.6176890000   17.4464680000   -7.8698920000
H      4.4586550000   23.3359770000   -6.3923570000
C     -5.8724710000   22.4663820000   -0.8989380000
H      0.2498060000   23.2676040000   -8.0745540000
H     -3.7490970000   17.4149950000   -8.6812850000
H     -1.9140890000   23.2499940000   -7.7838490000
H     -2.9982860000   17.5896040000  -13.2170050000
H     -5.5320760000   23.2524930000   -5.0495320000
H     -6.5383890000   23.3198740000   -0.6364200000
H     -2.0196340000   17.4537570000   -9.7576430000
H      1.1576410000   17.4559610000  -11.5444310000
H     -5.7984200000   23.3733440000    1.6646340000
H     -0.0915160000   17.4706510000  -10.0160040000
H     -2.4259920000   23.4576930000    4.6773850000
H     -4.1043270000   23.6118370000   -0.1509370000
C     -4.0434360000   11.3106650000   -6.7781940000
O      3.3431550000   11.3982260000   -2.2479820000
C      8.0188630000   14.1302150000   -0.9657130000
C      6.1884800000   12.8065590000   -2.3117440000
H      7.4606560000   17.5765880000   -8.4742140000
C     11.8409340000   14.1518380000   -0.8217170000
N      9.0091830000   10.3609600000   -0.8677980000
O     -3.0597900000   18.9109180000   -1.5002480000
C      4.8578280000   12.9034350000    7.7056430000
C      1.7042100000   14.2144480000   10.3435050000
N      9.8840300000   10.2846440000   -1.9180240000
C     11.7137910000   11.3549650000   -0.7839440000
C      2.9351180000   21.5731100000    1.1984430000
C     -4.0593090000   20.2201350000    2.7786720000
Si    -0.5605810000   11.7986260000  -19.5831410000
O     13.0324630000   12.5381330000   -5.3820300000
C     11.7107970000   14.1144330000   -3.5326960000
O     16.8639370000   10.9300610000    4.7559740000
Si    11.8919340000   12.5666620000   -6.6068670000
C     11.6316790000   11.2874100000   -3.4560780000
H      3.2331550000   23.7137060000    1.4453260000
C      2.7494510000   13.9419050000   -7.8144270000
S      8.0836420000    9.4963410000  -10.9932630000
Si     8.2759760000   12.4440690000  -11.2833440000
C      3.9835880000   11.2976620000   -8.5550280000
Si     2.8883060000   12.3425160000  -13.7961750000
C     -5.1993330000   10.9943690000  -11.4714120000
S     -0.0104050000    9.3653100000  -13.7761570000
N     -3.9289240000   10.0835050000   -9.0506400000
C      3.1590820000   18.9564200000   -3.7455580000
C      0.7058390000   20.2984860000    3.3128920000
C     -3.6110050000   13.9058120000   -2.8232900000
Si    12.6281860000    9.5868760000   13.9281560000
C     -1.9363370000   20.2680980000    4.1240150000
O     20.2084640000   10.9034870000   -0.8600070000
Si    17.7468840000    9.5364780000    7.3083260000
Si    -0.6036080000   15.2253820000  -19.7939010000
C      8.9844820000   12.8437800000   -0.9082960000
C     -5.4355150000   12.5217350000   -9.4319740000
Si     5.1775570000    9.5592770000   17.7547170000
O      2.8405690000   10.9517670000   16.4057860000
S    -15.6202850000   13.8214670000    0.2492510000
O    -18.6762820000   10.3422610000   -7.8711070000
Si     6.7854530000    9.5193150000   16.0547900000
H     -7.3208450000   17.6195570000    3.1493190000
Si     1.0179690000    9.5200920000   18.3639550000
O     18.4812220000   10.7354580000   -9.3139070000
O     15.4523340000   10.6877350000  -10.0595930000
Si    -3.1858590000    9.4596940000   18.0610740000
O    -15.9222920000   10.5873870000    6.0251210000
Si    13.3470010000    9.5366550000   11.7019550000
H     -1.2962000000   17.4808080000  -11.6667980000
O     17.7748950000   10.8285160000   -2.8105140000
Si    10.3101850000    9.5316760000   14.2446630000
Si    19.1167990000    9.4850450000    3.3284510000
O     19.8062590000   10.8213240000   -5.1779640000
Si    15.5441950000    9.5751560000   10.9000600000
C     -2.1498060000   17.6553470000   -5.6350720000
O    -13.7171170000   10.3210410000  -12.1265850000
O     -0.5853420000   18.9889480000    1.7139820000
O     -2.4495440000   21.6102910000    0.5046340000
O     -0.9847890000   10.9035040000   16.5506060000
O     -6.4473000000   18.9382630000   -2.8077900000
O     -2.7690440000   10.3071930000  -21.0745670000
O      6.9617670000   10.4634600000  -17.5411470000
H      5.3486550000   17.6973510000  -12.4251910000
O    -11.2680560000   10.7955910000   15.2887240000
O      1.0207270000   11.0107780000   18.9376170000
O    -16.9893550000   10.4021010000   -5.2477740000
H     -4.0618490000   23.2433070000   -6.6627630000
O      9.3694100000   11.0745630000   16.7611890000
Si    15.7767070000    9.5116220000    8.5716580000
Si     9.1164270000    9.5797190000   16.2572960000
Si    17.4665150000    9.4712190000    4.9860310000
O     -4.7524210000   10.8478330000   15.8610780000
O     -3.3124600000   10.9480900000   18.6265670000
C     -5.0156460000   20.1857580000    1.5402140000
Si    12.9737180000   12.6678620000   -0.7572120000
C     -0.4074860000   20.2919880000    4.4607290000
C      0.9128520000   18.9096710000   -5.1711720000
O      3.0709390000   21.6253660000   -2.3837900000
O     -2.4055430000   18.9514530000    0.5554500000
C     -1.7231670000   18.8873610000   -4.8185960000
O     -3.1077330000   21.5709020000   -1.5550740000
C    -11.6189180000   13.9135060000   -0.3842830000
C     -5.8100510000   22.4373360000   -2.4704680000
C      5.1604900000   20.2966290000    1.5406520000
C     -4.8387290000   22.4113800000   -4.8254550000
C     -3.7787100000   22.4035260000   -5.9884360000
C     -1.5176610000   22.4099850000   -7.1701800000
C      0.0416630000   22.4225940000   -7.3798080000
C      3.8617520000   22.4847310000   -5.9941430000
C      5.4199910000   22.5331640000   -3.9780080000
C      5.8944900000   22.5634490000   -2.4784310000
C     -0.4439740000   22.6238890000    4.4645590000
C      2.0776090000   22.6451910000    4.1236520000
C      3.4695720000   22.6483080000    3.3949970000
C      5.1867680000   22.6306810000    1.5165840000
C     -2.5595410000   22.7033180000    2.6602180000
C      5.7886330000   22.6097810000    0.0648820000
C     -4.4678920000   22.5781720000   -3.2964280000
C     -4.6017250000   22.6344970000    0.0289140000
C     -2.2199690000   22.5649930000   -5.7603520000
C      3.9053660000   22.6509310000   -4.4214540000
C      1.0857630000   22.5924380000   -6.2033520000
C      4.9121750000   22.7143090000   -1.2463940000
C      3.6401190000   22.7535020000    1.8270470000
C      0.6908400000   22.7501670000    3.3696710000
O     -2.4632450000   19.1290380000    4.8153970000
O     -4.4183830000   19.0841840000    3.5747420000
O     -5.8418830000   19.0300630000    1.7264630000
O     -6.5429460000   18.9805110000   -0.4778620000
O     -5.5697970000   18.9134650000   -4.9476410000
O     -3.9999780000   18.9009890000   -6.6719520000
O     -1.9518800000   18.9068710000   -7.7456910000
O      0.3590000000   18.9250760000   -8.0551850000
O      2.6175070000   18.9568840000   -7.5598980000
O      4.5867550000   18.9978140000   -6.3119960000
O      5.9997530000   19.0430120000   -4.4820060000
O      6.7101170000   19.0912650000   -2.2613550000
O     -0.1832190000   19.1653150000    5.3181610000
O      2.1131750000   19.1847830000    5.0105070000
O      4.1804850000   19.1861970000    3.9246550000
O      5.7375430000   19.1687650000    2.2102080000
O      6.6196250000   19.1340120000    0.0500010000
O      6.6849650000   21.3876090000   -2.3067270000
O      4.5637190000   21.2955700000   -6.3572400000
O      5.9790130000   21.3392880000   -4.5251640000
O      2.5965940000   21.2550060000   -7.6020830000
O      0.3350510000   21.2236940000   -8.0977780000
O     -1.9729500000   21.2059370000   -7.7881050000
O     -4.0252970000   21.1990960000   -6.7142470000
O     -5.5940290000   21.2114770000   -4.9931070000
O     -6.5694240000   21.2779230000   -0.5250390000
O     -6.4752520000   21.2338040000   -2.8516590000
O     -5.8652500000   21.3285320000    1.6799350000
O     -4.4408800000   21.3813630000    3.5208120000
O     -2.4849510000   21.4246830000    4.7583210000
O     -0.2106790000   21.4615950000    5.2579210000
O      2.0831620000   21.4816130000    4.9490710000
O      4.1454180000   21.4840900000    3.8684530000
O      5.7049550000   21.4657810000    2.1581360000
O      6.5908130000   21.4310730000    0.0054130000
C     -1.9487260000   17.9099530000    4.2642120000
C     -4.0947070000   17.8603310000    2.9008930000
C     -5.0721420000   17.8244970000    1.6285540000
C     -5.8406930000   17.7704570000   -0.7913770000
C     -5.7747200000   17.7422810000   -2.3933800000
C     -4.8125940000   17.7133260000   -4.7409130000
C     -3.7340890000   17.7050350000   -5.9264840000
C     -1.4889800000   17.7103020000   -7.1041380000
C      0.0993350000   17.7233380000   -7.3165480000
C     -6.8234550000   13.9680760000   -0.2869040000
Si    13.0394690000   15.2981130000  -16.0233520000
Si    -8.6161270000   12.2567240000   14.9127930000
S     -8.8755530000   14.0015960000   11.7639380000
S     -7.8429660000   13.9298940000   18.1452490000
Si    -8.7122980000   15.6806140000   14.9513640000
S     17.0076220000   13.6714080000  -13.6599620000
S     10.5782630000   13.8819970000  -13.1839860000
Si    13.6483250000   12.0626380000  -13.6156140000
Si    -8.0202580000   13.9788500000   13.7566610000
Si    13.7392380000   15.4869080000  -13.7889610000
S     12.8902090000   13.9370880000  -10.6400390000
Si    12.7077840000   13.8275760000  -12.7976310000
Si    16.0018780000   12.1414820000  -10.4147600000
Si    15.8103820000   12.1307400000  -12.7405290000
Si    15.9072720000   15.3851360000  -12.8943270000
Si    -4.9532710000   12.3174390000   16.4441260000
S     19.2853840000   13.7644890000   -9.7368320000
Si    -4.6095210000   14.0317200000   15.1782010000
Si    -3.2757140000   15.6742310000   18.0373870000
S     -2.5921280000   14.0640680000   14.3930570000
S     14.6290630000   14.0212450000   -7.6749950000
Si    14.8973220000   13.9013750000   -9.8198860000
Si     0.9773550000   12.4720440000   18.3026970000
Si    17.7374100000   15.6473700000   -6.8992230000
Si    -1.0985370000   15.8044050000   17.1770090000
S     20.6639180000   13.8568960000   -5.4096610000
Si    17.6151670000   12.2143240000   -6.7874210000
S     12.5862450000   14.1800770000    8.5649720000
O     -7.8711610000   10.3109630000  -16.9892540000
Si    -0.9764890000   14.0802740000   15.8293460000
O    -19.7214440000   10.4599570000    0.6993210000
O     13.1792160000   10.6129780000  -13.1468030000
Si    15.7889220000   15.8695130000    8.5145660000
O    -16.8174690000   10.2999650000  -11.7837200000
O     16.2970640000   10.6494260000  -13.0619720000
O      3.2932420000   10.4070330000  -18.6325420000
O    -11.4201120000   10.7225310000   12.1702390000
O     -0.5206410000   10.3520600000  -18.9129090000
Si    14.6200540000   14.1523130000    7.8111400000
Si    15.7431330000   12.4423530000    8.5185420000
S     14.4044760000   14.1810620000    5.6569090000
Si    13.3324220000   15.8904430000   11.6540400000
S     10.2099360000   14.1817420000   11.0255340000
Si    13.3116460000   12.4664820000   11.6527040000
Si    17.7036060000   12.4894190000    7.2542860000
Si    15.4962000000   12.5274680000   10.8372690000
Si    17.5255290000   15.8346000000    4.9180530000
Si     9.5338490000   14.1576970000   13.0809810000
Si    12.5796960000   12.5393610000   13.8678610000
Si    17.4478500000   12.4028310000    4.9371060000
S     19.0195040000   14.0854860000    7.8667000000
Si    10.2700250000   15.8936700000   14.1972020000
S      7.3790650000   14.1446880000   12.9144950000
Si    10.2726390000   12.4616490000   14.1938840000
Si    19.0905870000   12.4375890000    3.2812190000
Si    17.0660880000   14.0884430000    0.8816100000
Si     9.0630310000   15.7985320000   16.2024150000
Si     6.2597430000   14.1447480000   14.7612200000
Si     9.0701750000   12.5326040000   16.1897880000
S     20.5215140000   14.0213570000    3.5942540000
Si    18.4466530000   15.7845980000    1.0270890000
Si    18.3458710000   12.3570180000    1.0719260000
Si     6.7293130000   15.8803350000   16.0138980000
Si     6.7478320000   12.4490180000   16.0048120000
Si    19.7051260000   15.6327880000   -0.9475910000
S      4.1944850000   14.1267980000   14.1229750000
Si    17.1286070000   14.0344290000   -2.8103610000
Si    19.5988390000   12.3742760000   -0.8953650000
Si     5.1173440000   15.7763080000   17.7099970000
Si     3.4196980000    8.9235700000  -19.2030560000
Si   -18.0733220000    8.8827780000   -7.6432280000
Si     7.2131220000    8.9824460000  -18.0762260000
Si     5.6703420000    8.9521360000  -19.8342290000
Si    -2.6635740000    8.8444270000  -20.4445060000
O    -14.0087010000   10.6488240000    9.3451470000
C      3.9297900000   17.7866330000   -5.9150180000
O     10.3093880000   10.5294040000  -15.6828140000
C     -4.3213550000   20.1279540000   -3.2021390000
Si     2.7013010000   14.1216860000   15.6863390000
Si    18.5202040000   15.7198740000   -2.9700880000
S     15.6683080000   14.0797740000   -4.4074070000
Si     5.1390830000   12.5117160000   17.6904660000
Si    18.4038020000   12.2909740000   -2.8977250000
S      0.8203360000   14.0980870000   14.6211180000
Si     2.8798340000   15.8519920000   17.0199460000
Si    19.3236680000   15.5546400000   -5.1710650000
Si     2.9129740000   12.4256710000   17.0045180000
Si    16.4054910000   13.9712640000   -6.4394610000
Si     0.9399840000   15.7347570000   18.3291990000
S     -5.8810870000   14.0255200000   13.4267170000
C      5.4805290000   17.8369210000   -3.9069430000
C      5.9702040000   17.8691930000   -2.3802260000
C     -0.3811130000   17.9338980000    4.6113660000
C      2.1391610000   17.9550870000    4.2736760000
C      3.5600440000   17.9563630000    3.5262430000
C      5.2679090000   17.9380690000    1.6435220000
C      5.8722490000   17.9155600000    0.1570740000
C      5.8538920000   20.2290350000   -2.4165970000
C      5.3783210000   20.1976820000   -3.9067750000
N     -8.3530170000   10.0229100000   -5.8983380000
C     -9.1996450000   11.1570550000   -6.4151510000
C     -7.1574480000   13.9096060000   -4.2834040000
C      3.8433970000   20.1487940000   -5.8944330000
O      6.5436900000   10.9714530000   15.4443420000
O    -14.1637250000   10.2733420000  -15.2157880000
Si    17.6077010000    9.2832060000   -6.7217690000
O     -8.2861330000   10.7937280000   14.3759110000
Si    19.2212170000    9.3438500000   -5.0292680000
Si   -18.3102760000   12.0235480000    4.7457050000
O     17.0121400000   10.7547940000   -6.5627180000
Si    18.3429730000    9.4266050000    1.1218780000
Si    19.6128870000    9.4230220000   -0.8417320000
C      2.5220620000   20.1215060000   -6.7314590000
C      0.0689600000   20.0871960000   -7.2692240000
C     -1.4815980000   20.0747860000   -7.0615690000
C     -3.7064070000   20.0689330000   -5.8961160000
C     -4.7598590000   20.0767670000   -4.7395270000
C     -5.7140740000   20.1041160000   -2.4160050000
C     -5.7778050000   20.1321210000   -0.8527880000
Si   -10.4674240000    8.8098990000  -17.4534160000
Si   -17.5569450000    8.9157600000   -5.3617300000
Si    -8.1305560000    8.8235160000  -17.5014010000
Si   -19.0326960000    8.9328240000   -3.5458890000
Si    -6.7335450000    8.8192040000  -19.3755050000
O    -17.0978690000   10.6203270000    8.9150730000
Si   -18.0395740000    8.9665430000   -1.4281250000
Si    -4.4393050000    8.8353470000  -18.9223530000
O      1.5678250000   10.3541230000  -21.2301730000
Si   -19.0858260000    8.9966710000    0.6640280000
Si   -17.6574820000    9.0367290000    2.5164520000
Si    -0.5251450000    8.8680470000  -19.4977000000
Si   -18.2398890000    9.0733810000    4.7820310000
Si     1.5407310000    8.8908280000  -20.5933680000
O    -17.4547740000   10.4511380000   -1.4437210000
Si   -16.4541830000    9.1080440000    6.2927210000
O    -19.6651340000   10.3945460000   -3.6438230000
Si   -16.5467660000    9.1496240000    8.6305430000
O    -10.8239540000   10.2694990000  -17.9915680000
O    -11.0622500000   10.3060090000  -14.8810860000
Si   -14.0619690000    9.2319830000   12.0326450000
Si     9.5488490000    9.0172210000  -18.2013540000
Si   -11.8056660000    9.2538620000   12.6566300000
Si    10.6741150000    9.0488160000  -16.1511280000
Si   -10.8984380000    9.3167780000   14.8144300000
O     15.2258090000   10.9652760000    8.2168930000
Si    12.9810170000    9.0938190000  -15.7696470000
O     12.8786410000   10.9892360000   11.2428220000
Si    -8.5621220000    9.3276530000   14.9353870000
O     18.2705120000   11.0272470000    7.5390870000
Si    13.6376520000    9.1332390000  -13.5249820000
C      5.8600460000   -3.6046050000   -2.6369210000
Si    -7.2205440000    9.3911670000   16.8513090000
Si    15.8137440000    9.1805040000  -12.6692310000
O     15.9969900000   11.0685470000   11.2386630000
Si    -4.9101170000    9.3873840000   16.4797230000
Si    15.9886930000    9.2117000000  -10.3367830000
N      8.9841750000   10.1677360000   -2.9026470000
C      7.0610490000   11.5092210000   -2.1168170000
O     12.9910050000   11.0807690000   14.3622730000
Si    17.9338690000    9.2620380000   -9.0376440000
Si    -1.0101410000    9.4474510000   17.1974530000
C     -5.0955680000   22.5209580000    1.5265610000
C     -1.9788230000   22.5999130000    4.1280100000
H      8.4480130000   17.7513150000    1.0269370000
H      8.4181580000   17.7935080000    4.6863840000
O      9.9452670000   10.9832930000   13.6968770000
C      5.6813710000   12.7736690000   -3.8982600000
Si     2.9495710000    9.4967490000   17.0450430000
Si    18.3970770000    9.3603240000   -2.8396290000
C      8.0008970000   11.5313050000   -0.9246090000
O     19.6916310000   10.9703840000    3.4396890000
N      6.0210450000   10.3886340000   -2.2589190000
C    -10.2911510000   13.8729990000   -4.2166320000
H     -4.8093240000  -22.1189610000    0.9700840000
H      5.4286030000  -21.7784490000   -6.7581780000
H      3.1827700000  -22.1138950000   -5.6916170000
H     -7.1576990000  -21.8276220000    0.1327380000
H     -5.0459590000  -22.1452750000   -1.1849720000
H      2.7221300000  -21.8188220000   -8.0918510000
H     -6.8229460000  -21.8536220000   -2.8654630000
H      1.0442840000  -22.1424810000   -6.3201080000
H     -4.4238720000  -22.1629340000   -3.3249500000
H     -0.2772600000  -21.8540800000   -8.4332860000
H     -1.1119310000  -22.1616090000   -6.0876720000
H     -5.4948150000  -21.8717970000   -5.5762180000
H     -3.0671520000  -22.1688700000   -5.0166610000
H     -3.1353780000  -21.8670870000   -7.4595930000
H      7.3073500000  -21.7284540000   -4.3984590000
H      8.2807230000  -21.6892760000   -1.5443650000
H      6.1747800000  -22.0211000000   -0.2194070000
H      7.9446280000  -21.6583220000    1.4534460000
H      5.5507410000  -22.0030910000    1.9187830000
H      2.2410050000  -22.0063310000    4.6778870000
H      6.6161010000  -21.6460760000    4.1624750000
H      4.8711860000  -22.0816800000   -4.3306590000
H     -3.7395030000  -22.0870260000    2.9243340000
H     -6.1827150000  -21.7832990000    2.9872810000
H     -4.3033570000  -21.7403390000    5.3456150000
H      5.9405380000  -22.0485500000   -2.3749270000
H     -2.0508480000  -22.0544680000    4.2838820000
H     -1.5974640000  -21.6953710000    6.6781030000
H      0.0864110000  -22.0255610000    4.9109880000
H      1.4004630000  -21.6653830000    7.0183840000
H      4.1937000000  -21.9979280000    3.6081340000
H      4.2568760000  -21.6458250000    6.0450530000
C      6.6466830000  -20.9062930000   -4.0508290000
C     -4.3281540000  -20.0250770000    0.6071670000
O     -6.1566350000  -19.7142940000    2.9386320000
O     -1.6031080000  -19.6276940000    6.6040680000
C     -3.4020240000  -21.1715690000   -5.3932540000
O      4.2119650000  -19.5772150000    5.9777340000
C      3.8928540000  -20.8299180000    5.3854040000
C      3.9343440000  -19.9131570000    3.0304130000
C      1.8808240000  -19.9212200000    4.1542350000
C      4.5112860000  -20.9877160000    3.9653720000
C      4.9351320000  -19.9174750000    1.7826530000
C      0.2903910000  -19.9358410000    4.3252360000
C      2.3643850000  -20.9961610000    5.1405180000
O      2.5043550000  -20.0778850000    2.8544200000
O      6.5132900000  -19.5401660000    4.0733710000
O      1.3679950000  -19.5603660000    6.8899390000
C      6.0228140000  -20.8388330000    3.6838170000
C      1.3119800000  -20.8572560000    6.2626830000
C      5.9703130000  -20.9930040000    2.1478540000
O      4.4538260000  -20.0876280000    0.4246010000
C      0.0472040000  -21.0167430000    5.3904830000
O     -0.5937300000  -20.1064190000    3.1876910000
O      7.8727700000  -19.5895910000    1.4154590000
C      5.5884970000  -19.9370790000   -0.4663630000
C     -1.9564600000  -19.9664560000    3.6649820000
C     -2.7863500000  -21.0316240000   -6.8166520000
O     -3.1294270000  -19.7977710000   -7.4340990000
C     -4.9161620000  -21.0447340000   -5.1141260000
C     -1.2544880000  -21.1637500000   -6.5700780000
O     -1.4115390000  -20.2021380000   -4.3027640000
C     -0.2047130000  -21.0279810000   -7.6953460000
C     -4.8613390000  -21.1658490000   -3.5749340000
C     -2.8446810000  -20.0676810000   -4.4803700000
O     -5.4301550000  -19.7639510000   -5.5308820000
O     -0.2867840000  -19.7460670000   -8.3498590000
C      1.0635650000  -21.1437550000   -6.8207100000
C     -0.7914160000  -20.0598000000   -5.6062400000
C     -3.8463190000  -20.0637580000   -3.2323120000
O     -6.7906530000  -19.7836470000   -2.8732270000
C     -6.1174750000  -21.0188750000   -2.6669790000
O      2.6865290000  -19.7489390000   -8.0645310000
C      2.5045720000  -20.9867690000   -7.3890260000
C      0.7990170000  -20.0456900000   -5.7785960000
O     -3.3635420000  -20.1940750000   -1.8705030000
C     -6.4187570000  -21.0039170000    0.0419990000
C     -5.5460220000  -21.1467790000   -1.2242900000
O      1.6861010000  -20.1740750000   -4.6381630000
C      3.4127410000  -21.1124440000   -6.1304790000
C      4.9488760000  -20.9596050000   -6.1822210000
O     -7.0717940000  -19.7199120000    0.0976290000
C     -5.2923650000  -21.1188010000    1.0929500000
C     -4.5019090000  -20.0448020000   -0.9837660000
O      5.3400670000  -19.6714420000   -6.6978970000
C      5.2274960000  -21.0775040000   -4.6673570000
C      3.0455210000  -20.0157140000   -5.1182500000
C     -5.5396270000  -20.9551630000    2.6212450000
O      7.2380800000  -19.6601120000   -4.3949770000
C      4.2910970000  -19.9919850000   -4.1133690000
C     -4.1166850000  -21.0829110000    3.2396700000
O     -3.0246810000  -20.1540520000    1.2309520000
O      4.1146660000  -20.1277770000   -2.6795120000
C     -3.8399850000  -20.9256170000    4.7511340000
C      7.5248130000  -20.8796080000   -1.4713740000
C      6.4017310000  -21.0410310000   -2.5193690000
O     -4.2569910000  -19.6347300000    5.2387600000
O      8.1513760000  -19.5839990000   -1.5558690000
C     -2.3011310000  -21.0482860000    4.7010730000
C     -3.2031120000  -19.9901670000    2.6613910000
C      6.6544990000  -21.0123450000   -0.2022600000
C      5.4144370000  -19.9572060000   -2.0577030000
C      7.2233940000  -20.8417600000    1.2367410000
C     -1.3962670000  -20.8760010000    5.9561030000
S     -7.6714820000  -12.7773140000    1.7544820000
S     -6.0611220000  -12.7294500000    4.6820600000
S     -3.4683690000  -12.6801480000    6.7578080000
S     -0.2866410000  -12.6309150000    7.6947490000
S      3.0219590000  -12.5927290000    7.3503860000
S     -8.0259100000  -12.8209380000   -1.5685300000
S     -5.0038070000  -12.8606820000   -7.3383020000
S      5.9600720000  -12.5785470000    5.7508830000
C      5.1512660000  -12.5332190000   -6.6268340000
C     -6.6984110000  -12.6092350000   -2.9116910000
C     -6.9576860000  -12.5805200000   -0.0048730000
C      4.1362840000  -13.6167670000    3.5701960000
C      6.1832470000  -11.0682960000   -0.3180220000
C      3.4373090000  -12.3238440000    3.0144850000
C     -2.4925480000  -12.4673140000   -4.6248050000
C      7.0101460000  -13.6739280000   -1.5032490000
C      7.0782800000  -11.1038370000   -1.5452550000
C     -1.6048220000  -12.3695090000    3.5505610000
S     -7.0798240000  -12.8524950000   -4.7595640000
C     -6.0860510000  -12.5391720000    2.7840650000
C     -4.2050400000  -12.4952730000    5.0128600000
C      6.1343480000  -13.6420230000   -0.2931590000
C      5.8908500000  -13.6697870000   -2.4944500000
C      4.8315650000  -12.3294030000    1.2714060000
C     -3.8710410000  -13.7074320000    2.8525230000
C      5.9371170000  -11.0962660000   -2.5489570000
C     -1.6271180000  -12.4506890000    6.3623380000
C     -5.2839010000  -13.7970910000    2.3632500000
C      6.2990370000  -11.0939500000   -4.0249030000
C     -1.1472350000  -12.4621840000   -5.3651100000
C     -2.6738530000  -13.8694860000   -6.5605830000
C      4.8624910000  -11.1288240000   -4.5193400000
C     -1.2206190000  -13.7812730000   -6.2173750000
C     -4.0848380000  -12.4240410000    0.8067230000
C     -4.9380060000  -13.7396960000    0.9071180000
C      4.6340550000  -11.1775320000   -6.0220100000
C     -4.6376960000  -13.8281330000   -4.9139190000
C     -1.3616040000  -13.7209730000    5.5163810000
Si    -0.0587410000   12.3028460000  -14.1669960000
N     -2.1283070000   10.2004470000   -5.6147900000
C     -2.1627450000   12.6443680000   -5.6735490000
O      9.8088900000   15.4915280000  -10.7675260000
C      2.0832330000   20.3131900000    4.1265510000
C      5.5206050000  -13.6227590000    1.8395450000
C      3.6443870000  -13.6746400000    4.9846470000
C     -0.2301290000  -13.8099270000   -7.3371440000
C      2.5419250000  -12.4230280000   -5.1776690000
C      2.3269650000  -11.1663740000   -7.2311360000
C      0.9797890000  -13.7616410000   -6.4599960000
C      5.6135250000  -13.6302120000    3.3340680000
C     -0.0154370000  -13.6455210000    4.8670800000
C      2.1879670000  -13.6249640000    4.6338440000
C      4.8289320000  -13.7019030000   -4.4419310000
C     -2.1443730000  -13.6748480000    4.2404390000
C     -3.1208800000  -12.6214020000   -7.3601450000
C     -4.3235770000  -12.4506590000   -1.4121610000
C      2.3270110000  -13.8255400000   -7.1102580000
C      6.2400580000  -13.7526420000   -3.9473550000
O      3.3033180000   13.9571930000   -2.2862080000
N      3.9832840000   10.3060270000   -5.7750710000
C     -3.7205290000  -11.1446510000    4.3710740000
C      2.2292260000   11.5959470000    5.4080290000
C      0.9614150000  -11.1885610000   -6.5621390000
C     -0.1304960000  -12.3499180000    3.9839520000
C      4.5998330000  -13.7471370000   -5.9194050000
C     -3.1629140000  -13.7893610000   -5.1483130000
C     -3.6364440000  -13.7151670000    4.3295010000
C     -1.2700250000  -11.2080910000   -6.3158330000
C      3.1076680000  -13.7337610000   -5.8349040000
C     -2.2043170000  -11.1010810000    4.2739030000
C     -2.7471250000  -11.2104750000   -6.6733680000
C     -3.2366290000  -11.2158990000   -5.2347060000
C      4.0610350000  -12.3959200000    5.7605690000
C      2.0894720000  -12.3293450000    3.7502260000
C     -4.7371500000  -11.2586320000   -5.0023610000
C     -4.6428180000  -11.2113110000   -3.4862630000
C      4.7499250000  -18.5613590000   -5.9918630000
O     -5.9756200000  -14.9886860000    2.7614030000
C     -5.2888450000  -16.1749230000    2.4050450000
C     -4.1246490000  -14.9840190000    0.4824330000
C      2.5316500000   22.4570210000   -6.8343830000
O     -4.1573010000  -17.2993910000    5.0600350000
C     -5.3435320000  -12.6250790000   -5.4868690000
C     10.8371180000   11.4443540000   -2.0449940000
C      4.2761250000  -12.3909110000   -3.7738630000
C      6.2991900000  -12.3971530000    3.8785780000
C     -3.3460850000  -12.4019820000    2.1532970000
S     -2.0981950000  -12.8436370000   -8.9418890000
S      1.2147490000  -12.8102570000   -9.3130810000
C     -5.2762090000  -11.1947000000   -1.3324280000
C     -0.3430190000  -12.6032360000   -8.2377900000
C      7.0174000000  -12.4902040000   -4.3906810000
C     -5.8235950000  -13.8581890000   -2.6406630000
C     -6.1757130000  -11.2208160000   -0.1057210000
C     -6.0553460000  -13.7885130000   -0.0857980000
S      4.4257490000  -12.7702250000   -8.3713520000
S      7.0134950000  -12.7286500000   -6.2714650000
C      5.2572430000  -12.3414300000   -0.2049760000
C     -5.0362230000  -11.1680820000    0.9006220000
S      8.5983240000  -12.6833630000   -3.3585900000
C     -4.5492480000  -13.7843870000   -3.4228140000
N      5.5437890000   10.3578010000   -3.7539810000
S      8.9663500000  -12.6339210000   -0.0670660000
S      8.0493500000  -12.5934120000    3.1376500000
C      1.1930660000  -13.6484120000    5.7499760000
O      1.3235420000  -17.2262400000    6.6707710000
C     -4.6436130000  -18.7373270000   -3.4403040000
C     -3.9552250000  -11.1351790000    2.8688970000
C      7.8846280000  -12.4503930000   -1.6161020000
C      7.6443820000  -12.4152320000    1.2856750000
C      1.2723460000  -12.4169290000    6.6223450000
C     -0.0506800000  -11.0716500000    4.9054380000
C     -1.4158800000  -11.0601290000    5.5726580000
O      4.2553420000  -12.3374310000   -1.2179230000
O      2.8530380000  -12.3790620000   -3.7888340000
C    -10.1272950000   11.1893810000   -4.1496220000
C      9.0932980000   12.7717680000   -3.0991450000
O     -2.5022990000  -12.4265370000   -3.2015920000
O     -1.9222720000  -12.3635210000    2.1622940000
O      0.8863380000  -12.3276190000    2.9878710000
O      3.4446050000  -12.3160450000    1.5905780000
C      1.1745440000  -11.0759850000    5.8068440000
C      2.1823340000  -11.0512820000    4.6689780000
C      3.6592170000  -11.0130570000    5.0314280000
H      9.1511960000   18.0041260000    6.8893210000
H      7.7173860000   17.7771890000    2.8344670000
C      5.6571960000  -11.0592380000    3.3584130000
C      5.5588180000  -11.0499580000    1.8391900000
C      6.8554600000  -11.0291710000    1.0452480000
C      5.0117750000  -12.3686820000   -2.4243420000
C      1.0695620000  -12.4425060000   -5.6099100000
C      6.7920240000  -13.6890650000    1.0528120000
C     -5.1750520000  -13.7664700000   -1.2950000000
C      4.6569030000  -14.8822660000    1.6003540000
O      6.2471800000  -14.8443250000    3.8450850000
H      9.7447900000   17.8360380000    2.6115550000
C      5.6612300000  -16.0820620000    3.3797070000
C      3.7104770000  -14.8780750000    2.7834210000
O      6.3387880000  -17.2067880000    3.9256790000
C      5.5693420000  -16.1106450000    1.8787300000
H     10.8132720000   18.0261780000    4.6547570000
C      4.1770050000  -16.1046300000    3.6181170000
O      4.1150250000  -14.9089600000    0.2883970000
O      7.5748110000  -14.8674370000    1.2893020000
H     10.2435480000   17.7494560000    0.2031910000
O      4.0415690000  -14.8523100000    5.7013370000
C      5.2713120000  -14.9012710000   -0.5337210000
H     11.9376470000   17.9946550000    1.9022450000
C      1.7627050000  -14.8864630000    3.8482230000
C      5.7836370000  -18.4444070000    3.4848240000
C     -4.1313770000   22.5540230000    2.7680460000
C      4.9110610000  -17.4072690000    1.3395440000
Si   -13.9025920000   15.0185850000  -14.9952200000
S    -17.6340230000   13.3071030000  -12.3187330000
Si   -10.9445030000   12.2677310000   14.7738400000
S     13.9462170000   13.5811150000  -17.0054870000
Si    10.6705330000   11.9794370000  -16.2404340000
S      7.7674070000   13.8160260000  -15.1600610000
S    -11.8129250000   13.8407440000   15.9668290000
Si   -11.8621110000   12.1841990000   12.6271910000
Si     9.5638540000   15.2214850000  -18.4641700000
Si     9.5280120000   11.9678920000  -18.2746270000
Si   -14.2469810000   15.4403060000   12.0379230000
S     10.2362090000   13.5020670000  -19.6153580000
Si     7.2201510000   15.3352890000  -18.3669100000
Si   -14.7158770000   15.5351970000    9.7395750000
Si   -14.5485610000   12.1063700000    9.7025160000
S    -11.4764230000   13.9714290000    9.5149450000
Si   -16.7752720000   15.3576270000    8.6237130000
Si   -15.4160240000   13.8034070000    5.7225170000
Si   -16.6045150000   12.1013200000    8.5976500000
S      6.0545710000   13.4333480000  -21.3684800000
Si    10.7303060000   15.4062360000  -16.4353710000
Si   -11.9909090000   15.6067300000   12.6720950000
Si     3.3843090000   15.2754030000  -19.5031340000
Si     3.3942100000   11.8531020000  -19.2954490000
S      1.2196030000   13.6937620000  -17.0942710000
Si   -16.7360900000   15.4621900000    6.2774220000
S    -17.9209130000   13.6466090000    9.3276380000
S    -14.9066070000   13.8549270000    3.6149640000
Si   -11.0494770000   15.5252860000   14.8190190000
Si   -16.5389200000   12.0376370000    6.2652190000
Si   -11.0404080000   13.9240270000   11.6367670000
Si     5.6503620000   15.1549390000  -20.1012060000
Si     5.6454310000   11.9023610000  -19.9052350000
Si     3.1451840000   13.6246900000  -18.0822190000
Si     6.6866110000   13.6821670000  -17.0314840000
Si   -14.1097120000   12.1846870000   11.9945280000
Si   -13.5573730000   13.8641580000    8.9243950000
Si     7.1978000000   11.9122270000  -18.1632670000
S    -15.2288920000   13.7429030000   12.9842870000
S      4.5909350000   13.7387260000  -16.4750970000
S    -13.5193170000   13.9235780000    6.7596200000
Si     1.5059510000   11.8416940000  -20.6643860000
Si   -10.5167310000   11.7602780000  -17.5232500000
O     -4.3015460000   10.3206230000  -18.3577970000
O      5.3101140000   11.0520540000   18.3080490000
H     -5.5749930000   17.5435650000  -12.1624550000
H     -0.0661920000   17.6160920000  -13.6107570000
C     -2.7558690000   10.9737360000  -12.5409580000
H    -11.5426430000   17.7203670000    2.3529740000
O     -0.3679350000   21.5576160000   -4.5593380000
O     -0.3379940000   18.8929360000   -4.4937730000
C      7.1151880000   14.0849780000   -2.1644040000
H     -4.4611120000   23.4175930000    3.3877110000
H     11.2365640000   17.8592290000   -6.4601900000
C     -4.3748600000   17.6720370000   -3.1889580000
O     -2.2867210000   21.5533470000   -3.5564430000
O      1.5236390000   21.6604420000    1.3737180000
C      4.9303950000   17.8078590000   -1.1497790000
C      0.7475070000   17.8497340000    3.4605970000
C     -2.1348710000   20.1131890000   -5.6024320000
H      1.2105310000   17.7473700000    6.8813140000
C     -4.4533060000   20.1830000000    0.0429540000
H     -3.9873740000   23.5622290000   -3.1063310000
H      0.9626670000   23.5761830000   -5.7009910000
H     -1.9835890000   23.5512970000   -5.3059760000
H      1.7353110000   17.9801030000   10.7967120000
H      3.2537680000   17.7983840000    6.7693620000
C     -2.4686720000   20.2514150000    2.6150370000
H     -2.2830280000   23.6717470000    2.1881480000
H      2.6025940000   17.7913740000    8.6407190000
C     -8.1671220000   13.9489720000   -0.9442530000
H     -3.6294680000   17.4132080000  -10.9010560000
C      5.7538970000   20.2748760000    0.0927280000
H     -7.5577330000   17.4436610000   -4.4931400000
H     -6.1363370000   17.6629900000    4.6974040000
O      3.0815580000   18.9623370000   -2.3230880000
O     17.7214830000   10.8914810000    1.0219480000
C     -6.7147800000   11.3942430000   -0.2603570000
O      1.5511510000   19.0061970000    1.4285940000
H      7.0934370000   18.0399150000    8.7737220000
C     -1.9949590000   18.9988590000    1.9188060000
H      6.8862210000   17.8038220000    6.3855860000
H      4.9527200000   17.8640310000    7.9087040000
H      6.2320160000   17.7520020000    4.2380980000
H     -0.2940660000   23.4951010000    5.1422570000
H      2.0951290000   23.5144580000    4.8185950000
H      5.6548960000   23.5016490000    2.0273580000
H      4.9807240000   17.8005080000    5.8577950000
H      6.4917510000   23.4706710000    0.0127230000
H      4.0266620000   23.5201190000    3.8067480000
H      4.4514030000   18.0316030000   10.1651670000
H     -5.4260430000    9.9980940000  -11.9094170000
H     -6.4476640000   17.8778600000    8.9866990000
H    -10.9843100000   10.0466470000   -5.8132900000
H    -11.3215130000   10.1745960000    2.4313700000
H     -2.6965980000   17.7390200000    6.8873110000
H     -4.3942630000   17.7123600000    7.9003570000
O      9.8310180000   10.4833580000  -18.7648580000
H     -7.9077170000   17.5811790000  -10.6416060000
C     -3.5284180000   13.8808670000   -8.2736250000
C     -2.4900360000   17.8009030000    2.7458000000
C      3.1407270000   21.4958470000   -3.8015890000
H      2.6979160000   17.6171770000  -13.2745030000
H      1.8622400000   17.4630970000   -9.4348580000
H     -6.4536480000   23.2764190000   -2.8176850000
C      0.6063200000   19.0368010000    2.4931440000
C      3.9489250000   21.5440300000   -1.2635120000
C      1.0835460000   20.1402130000   -6.0335810000
C      3.9694430000   19.0072690000   -1.2103020000
C      9.3971930000   14.0014190000   -8.4489500000
H     -3.9662100000   17.9518270000   10.2594490000
H     -0.7901650000   17.7660270000    7.3112130000
H     -6.2854790000   10.3415220000    8.9676740000
H     -2.1277620000   17.8081650000    8.8580610000
H      0.3337860000   17.7740480000    8.9441490000
H      0.6069160000   23.7121270000    2.8179240000
S     -2.1994170000   13.6656220000  -16.9728300000
S      5.4895520000   14.1245290000   19.0800190000
S     21.0775710000   13.9447550000   -0.8976320000
S     15.5489940000   14.1576370000    2.4241770000
S     13.4947750000   14.1531050000   14.9693890000
Si    -7.6287620000   13.5329160000  -16.5000850000
Si    16.2234010000   14.1267900000    4.4821230000
O      5.8295970000   10.4166510000  -20.4475280000
O    -17.0887470000   10.5197500000    2.3715440000
O    -18.8486990000   10.5388900000    4.9472100000
S     -3.5009280000   14.0106610000   19.4242200000
C     -2.5899960000   14.1177760000    5.2102200000
C     -1.9575260000   12.8480740000    4.5009540000
C     -6.0194830000   11.3229440000    8.5189180000
Si    -6.7195460000   12.6256440000    9.5772800000
C     -2.5238010000   11.5417960000    5.1744920000
O     -0.5426410000   11.4444600000    2.0293120000
O     -0.5673540000   14.0015190000    1.9789790000
N     -4.0782220000   10.2997920000    7.5251790000
C     -4.5786170000   12.8248590000    6.2094010000
N     -4.5502120000   10.3409610000    6.2445630000
C     -6.1355980000   14.1144500000    8.6153690000
N     -2.4696910000   10.3568820000    2.9739980000
C     -2.0276540000   14.0202970000    2.1519130000
C     -4.0291920000   11.5166850000    5.3872510000
C     -4.0826040000   14.1164360000    5.3869590000
C     -2.0044890000   11.5068940000    2.1992450000
N     -1.8433760000   10.4298790000    4.3647850000
S     -8.8345100000    9.6575220000    7.5808930000
C     -2.5090170000   12.8016840000    2.9517480000
Si    -9.0716100000   12.5810600000    7.7603670000
N     -5.9099590000   10.2588470000    6.3680240000
C     -8.2933080000   14.0737720000    6.9648530000
O     -8.3359800000   12.5327010000    9.2355250000
C     -6.0816970000   12.7856070000    6.4225630000
C     -9.8558130000   11.1903970000    4.7356240000
C     -6.5598940000   11.4152750000    7.0826950000
S    -10.5978000000    9.5637710000    5.2022720000
C     -9.0386350000    8.9277000000    5.9121600000
Si   -10.9190530000   12.5138480000    5.3600610000
O    -10.5580950000   12.4819130000    6.9939760000
Si    -7.7923350000    9.8461550000    4.9439440000
C     -6.6845470000   14.1016770000    7.1380020000
C     -8.1705590000   11.2524340000    6.9345870000
C     -8.5607400000   14.0575350000    5.4234320000
N     -6.2080950000   10.1437140000    5.0681080000
C     -5.9290120000   11.4121820000    4.3258230000
C     -8.5051790000   11.3897470000    5.4437240000
C      2.5762300000   17.7583830000   -6.7733440000
C     -4.4762720000   11.4961810000    3.9371320000
C     -6.4434970000   12.7477190000    5.0534740000
C     -9.9825870000   14.0166510000    4.7694750000
C     -4.5561690000   14.0724670000    3.9618230000
C     -6.8361650000   14.0387600000    3.2417850000
C     -6.0080380000   14.0674740000    4.3196520000
C     -4.1458530000   12.7965870000    3.1124150000
C     -9.7360490000   14.0020140000    3.1714160000
C     -9.5888450000   11.3150420000    3.1459600000
O    -12.1584960000   12.4181870000    4.2748480000
C     -8.8596920000   12.6928770000    2.8140680000
C     -6.7595410000   11.3842580000    3.2473720000
C     -6.1183390000   14.0164740000    1.9309960000
O     -2.4900080000   13.9547790000    0.7558170000
C     -7.6274460000   12.7073040000    3.5156360000
C     -7.8584880000   12.7242470000    4.9161230000
N     -3.9982860000   10.3792560000    2.9995180000
N     -7.5187370000   10.1000350000    3.3685100000
N     -4.9566030000   10.3437590000    1.7569900000
C     -5.1624380000   12.7596440000    1.7922000000
C     -6.0137600000   11.4418640000    1.9419440000
N     -8.2403660000   10.2154480000    1.4586110000
Si   -12.0715350000   12.4553520000    2.6239650000
O     -2.4709480000   11.3965970000    0.8052970000
C     -7.3040600000   11.4028920000    1.1383520000
C    -10.8420800000   11.1630830000    2.2602150000
C    -11.0222730000   13.9578890000    2.2623900000
N     -8.7027230000   10.1665130000    2.7436460000
C     -3.7217140000   13.9566850000   -0.0491130000
O    -13.0935450000   12.3583720000    1.3282800000
S    -12.3589680000    9.4570810000   -0.2819010000
N     -4.5431080000   10.2806360000    0.2875250000
C     -4.5894440000   12.7243290000    0.2510010000
C    -11.4714590000   11.0830040000   -0.3358210000
C     -8.2702190000   12.6984260000    1.4178350000
C    -10.3333950000   11.2627770000    0.8116800000
C     -7.3763560000   14.0009470000    1.1085480000
C     -3.7023420000   11.4427910000   -0.0042520000
N     -9.3605380000   10.1206080000    0.6781170000
C    -10.4953510000   13.9521400000    0.7795510000
Si   -12.7089470000   12.4013680000   -0.2765630000
S    -19.7643690000   13.5555110000    5.1835430000
C     -9.5592260000   12.6451780000    0.6159470000
C      1.1267990000   17.6829050000   -6.0740590000
C      3.4695710000   20.3147690000    3.3994310000
C     -2.0261710000   21.5330150000    1.8636560000
O      2.9988040000   18.9949460000   -0.1679210000
O      1.7647210000   18.9223120000   -4.0302440000
S    -12.2067700000    9.4221310000   -3.2442060000
C     -4.5096950000   17.7293550000    0.1189400000
C      4.8143210000   20.2600050000   -1.2021120000
C    -11.4433420000    8.7834580000   -1.7190720000
C      3.8268140000   20.1970720000   -4.2958360000
C      3.9205630000   17.7418180000   -4.3028080000
C     -5.7382160000   11.3244520000   -4.9152820000
C    -10.7719200000   11.2416120000   -1.6931890000
C    -11.3517190000   11.0484560000   -3.1048720000
C     -3.5125060000   18.8999670000   -2.8507820000
N     -8.7520460000   10.0170260000   -0.5102720000
C     -3.5491910000   21.4378370000   -2.9036580000
Si    -9.8809530000    9.7102530000   -1.6282160000
C     -1.7534930000   21.4271140000   -4.8726460000
O     -0.6196250000   21.6418170000    1.6599740000
O     -2.2434990000   18.8881210000   -3.4940540000
O    -11.6610190000   12.2055030000   -7.7828390000
S      1.5968320000   13.3705920000  -22.1835160000
C      0.5755770000   21.5693140000    2.4336070000
O      1.7481910000   21.5881280000   -4.0968960000
C     -8.0775830000   11.2959040000   -0.8959400000
C    -11.5056310000   13.8713110000   -3.1495550000
C    -10.8341280000   13.9112850000   -1.7364790000
O      2.9807530000   21.6516940000   -0.2236070000
C     -9.9542390000   12.5878020000   -1.6774760000
C      3.6809760000   17.8522610000    1.9187040000
C      3.5831130000   20.3016740000    1.8037270000
Si   -12.5853000000   12.3570730000   -3.3007020000
C     -8.9565560000   12.6186490000   -0.6648530000
C     -6.4467870000   13.8751310000   -6.3655140000
O     13.0330220000   15.6152560000   -5.4385260000
O    -13.3555590000   12.3033200000   -1.8152210000
C     -3.6194370000   18.9444260000   -0.1913100000
C      2.9639790000   19.0396780000    1.2549790000
C     -3.6566830000   21.4806890000   -0.2428560000
S      9.7180030000   14.1485720000   17.4643570000
O    -14.5302500000   10.7080950000   12.4206210000
Si    -0.5357840000   13.5769230000  -18.3532360000
Si    12.9700240000   12.0442120000  -15.8488130000
Si    -2.7571600000   15.0514590000  -20.7082590000
S     -7.3235150000   13.2933770000  -20.8724380000
Si   -18.5077580000   15.2772710000    4.7471350000
Si    -4.1858120000   13.5460530000  -17.8173540000
Si    -6.8608800000   15.0247110000  -19.6379300000
Si   -16.5493250000   13.7417800000    2.2033900000
Si   -19.1585430000   11.9474320000    0.6190480000
Si   -16.9098700000   13.6826620000   -1.4861990000
S     -2.9342250000   13.3226970000  -22.0179640000
H      4.3689320000   23.6845030000   -1.2860010000
Si   -18.3562450000   15.3257750000   -1.5308540000
Si   -16.5122190000   15.0443490000  -11.6423820000
Si    -4.4818630000   11.7654830000  -19.0077870000
Si   -14.4823910000    9.1752040000    9.7310260000
H     -1.0513650000   17.9879710000   10.9035830000
H      3.4774030000   23.6296640000   -4.1134010000
S    -20.6794590000   13.4725980000    0.7398400000
Si    12.5890220000   15.8039240000   13.8751410000
Si   -17.9677720000   15.3910190000    2.4650260000
Si     1.4805610000   15.0960940000  -20.8629420000
Si    16.1108640000   15.5678140000  -10.5627640000
Si    -3.2211550000   12.4121140000   18.0030490000
Si   -14.4273650000   15.1915030000  -12.7133890000
Si    -7.3353920000   15.6033710000   16.8480750000
C      3.0744330000   16.5476080000    1.3795090000
H     12.2385890000   10.3752470000   -0.7500810000
Si    -6.7725230000   11.7699640000  -19.4476100000
Si   -16.4522490000   13.6305470000   -5.1673490000
Si    -8.2944990000   15.1757980000  -17.7869420000
Si    -8.1853360000   11.7526640000  -17.5920660000
Si    -2.6997130000   11.7957770000  -20.5119390000
S    -14.7765920000   13.7113920000   -6.5441780000
S     -5.5044760000   13.6366600000  -16.1043850000
S    -11.3587680000   13.2809220000  -18.8011330000
S    -11.1920170000   13.6577800000  -12.3643490000
Si   -11.6356290000   15.1732870000  -15.5872850000
Si   -18.1435580000   11.8327670000   -7.7000000000
Si   -10.7095960000   13.5335770000  -14.4695510000
Si   -17.8639670000   15.2689760000   -5.5169570000
Si   -11.4950220000   11.7485910000  -15.4051810000
Si   -10.6341170000   15.0140640000  -17.7028630000
S    -15.5757070000   13.7720950000   -3.1907240000
S    -19.5857810000   13.3485470000   -8.2249780000
S    -13.3017440000   13.6815730000   -9.6530810000
Si   -17.6457360000   11.8451170000   -5.4194080000
Si   -19.3674990000   15.2016030000    0.5863140000
Si   -16.5335150000   15.2250410000   -9.3006050000
S     -8.5469520000   13.6341190000  -14.5440180000
Si    -4.5600370000   15.1918890000  -19.2131760000
Si     9.9312670000   13.7511070000  -15.2470820000
Si   -13.7562400000   11.7645440000  -14.8313380000
Si   -16.3309520000   11.8014800000   -9.1693640000
Si   -18.3423980000   15.0846120000   -7.8088780000
Si   -14.2499240000   11.7638280000  -12.5505450000
S    -20.6194350000   13.4035580000   -3.8040620000
Si   -18.1282900000   11.8969710000   -1.4749670000
Si   -15.2256490000   13.5879650000   -8.6610440000
Si   -19.1028020000   11.8835610000   -3.5959720000
Si   -13.2846770000   13.5534840000  -11.8147590000
S    -14.8516010000   13.2836320000  -15.9031560000
Si   -16.3343360000   11.7910480000  -11.5025080000
C     -5.9476790000   12.7052860000   -0.6774630000
N     -8.6654380000    9.9850540000   -2.6564200000
O    -12.8345820000   12.2501840000   -4.9246570000
C     -9.3726620000   12.5740500000   -3.9318590000
N     -5.7316040000   10.2907760000   -0.6754370000
C     -8.8776630000   12.5882720000   -2.6034110000
C     -8.0225050000   11.2745320000   -2.2562370000
N     -5.6703330000   10.2632360000   -2.2434690000
C     -6.7199140000   13.9242960000   -2.8456550000
C     -5.8814030000   12.6765420000   -2.3415230000
O     -3.1804580000   13.9028190000   -1.4162310000
O     -3.1655720000   11.3439100000   -1.3738900000
C    -10.5179900000   11.0390830000   -5.6319630000
C     -8.0248500000   12.5986650000   -4.6242750000
C     -7.0878040000   11.3132980000   -4.2220160000
N     -4.4090970000   10.2198930000   -3.1053200000
C     -4.4528410000   12.6635420000   -3.1548430000
C     -3.5928710000   11.3915590000   -2.7840920000
S    -10.0355720000    9.3411400000   -8.5273670000
C     -9.3360030000   10.9794140000   -8.0215900000
Si   -10.3427920000   12.2830220000   -8.7724850000
C     -9.3398610000   13.8428300000   -6.5385970000
C     -9.4560670000   13.8070950000   -8.1529510000
C     -8.4987450000   12.5456540000   -6.0661410000
C     -8.4078020000    8.6978700000   -9.0459250000
S     -8.0267670000    9.3297630000  -10.7134970000
C     -7.4673810000   10.9677570000  -10.0699270000
C     -7.9294570000   11.1556450000   -8.6156520000
Si    -7.2647660000    9.6323880000   -7.9969540000
N     -7.1214660000    9.9361840000   -6.4174400000
O     -9.8421310000   12.1717190000  -10.3617250000
C     -7.9850410000   13.8245420000   -8.6859360000
Si    -8.3044410000   12.2665520000  -11.0139200000
C     -7.2145500000   12.5366790000   -6.6616010000
C     -7.5932130000   13.7920100000  -10.2016220000
C     -7.3295270000   12.5081640000   -8.0784350000
C     -6.3738020000   11.2235290000   -6.2772920000
C     -5.8384650000   13.8968510000   -4.9983220000
N     -4.7033010000   10.2327120000   -4.6053530000
C     -4.8994990000   12.6456110000   -4.7388310000
N     -5.6764570000    9.9257790000   -8.0057040000
C     -5.8563560000   11.1317250000  -10.0856370000
C     -5.9752630000   13.8156010000  -10.2377110000
C     -5.9087680000   12.5267110000   -8.0963960000
O     -7.4413490000   12.1549180000  -12.4120550000
C     -5.4578360000   11.2166600000   -7.2839970000
C     -4.1160910000   13.8831480000   -6.8920040000
C     -5.5330160000   13.8680390000   -7.3699520000
N     -3.6485650000   10.2238170000   -5.7669380000
C     -3.7799550000   12.6365450000   -5.9701860000
O     -2.3189750000   13.8723910000   -3.5224230000
O     -2.3018980000   11.3117080000   -3.4880390000
Si    -5.8078320000   12.2626600000  -12.6265560000
C     -5.3062800000   13.7857750000  -11.6645000000
N     -5.2734820000    9.9993610000   -9.2813400000
C     -3.9568870000   12.5660330000   -9.0954550000
C     -3.4790470000   11.2845220000   -8.1883630000
C     -1.7463840000   13.8897060000   -4.8756610000
C     -1.7241930000   11.3748580000   -4.8413850000
O     -4.7030400000   12.1572690000  -13.8476210000
S     -2.9525680000    9.3336070000  -13.3725370000
Si    -3.0616720000   12.2742130000  -13.7640140000
C     -2.8028600000   13.8001760000  -12.7151360000
C     -3.7524460000   13.8194230000  -11.4040430000
C     -3.6863650000   11.1344190000  -11.2239920000
C     -0.0080440000   10.9998900000  -12.9115550000
C     -1.2981860000   11.1675280000  -12.0925130000
Si    -1.1626250000    9.6421940000  -11.1956740000
N     -2.0749680000    9.9319570000   -9.8940640000
O     -1.6509580000   12.1794550000  -14.6554410000
C     -1.3332470000   13.8371020000  -12.1756020000
C     -0.0580820000   13.8252980000  -13.0834630000
C     -2.0254680000   12.5340070000  -10.1336370000
C     -1.6098550000   11.2239800000   -9.3024540000
C     -1.6456670000   13.8757280000   -9.4094120000
C     -1.9991300000   11.3147540000   -7.8508260000
C     -2.0580740000   13.8873440000   -7.9717480000
N     -1.3881420000   10.2281010000   -6.9530430000
C     -1.4876300000   12.6410660000   -7.1728420000
N      0.0537540000    9.9512970000  -10.1802830000
C      1.2338630000   11.1793920000  -11.8863230000
N      3.2965320000   10.0758050000  -10.4362690000
O      1.5045450000   12.2201440000  -14.6845500000
C      1.2037100000   13.8639680000  -12.0698020000
C     -0.1029350000   12.5512800000  -10.3919320000
C      1.1173530000   12.5656110000  -11.1099560000
C     -0.3000150000   13.8876600000   -9.5900360000
C      0.4786370000   13.9093580000   -8.3122020000
C      1.8351280000   11.3310040000   -8.9029170000
C      0.4973290000   11.3368350000   -8.1863180000
N      0.1649480000   10.2418410000   -7.1613480000
C      0.1615540000   12.6553980000   -7.3939440000
O     -0.3080420000   13.8755170000   -4.5768570000
O     -0.2824810000   11.3152360000   -4.5478680000
C      2.6284180000   11.0660000000  -12.5253990000
N      2.0606050000   10.1364910000   -9.8572600000
C      2.6330010000   13.8569710000  -12.7312180000
C      2.0333820000   12.6188760000   -9.9005060000
N      1.2330260000   10.2290230000   -6.0668210000
C      1.8163370000   13.9273930000   -8.9914530000
C      3.9887320000   13.9498640000   -8.6502840000
C      1.0003770000   13.9128690000   -5.2434150000
C      1.0297070000   11.3981120000   -5.2107620000
C      1.2102970000   12.6729960000   -6.1262840000
O      4.5225750000   12.2723360000  -14.0255950000
S      5.5627680000    9.4573450000  -12.5583990000
C      5.1820910000   11.0820760000  -11.7758820000
Si     5.7187310000   12.3926000000  -12.9017650000
C      5.2234450000   13.9047620000  -11.9256210000
C      3.6547210000   13.9008580000  -11.5323350000
C      3.6249700000   11.2176190000  -11.3622780000
C      7.5269840000   11.1222660000  -10.2998520000
C     -0.2609890000   11.2361440000   -9.4836690000
C      6.0117530000   11.2760940000  -10.4962210000
Si     5.5614600000    9.7419170000   -9.7290360000
N      4.0241040000   10.0101120000   -9.3134740000
O      7.3775120000   12.3356740000  -12.6871150000
C      6.0027340000   13.9454410000  -10.5688960000
C      7.5614380000   13.9529250000  -10.4455530000
C      4.1804080000   12.6140420000   -9.4537520000
C      5.5546160000   12.6189450000   -9.8133530000
C      2.7526810000   11.3688510000   -7.6923040000
N      2.6592650000   10.2773510000   -6.6151170000
C      2.6910670000   12.6915390000   -6.8398360000
N      5.8382800000   10.0450180000   -8.1653680000
C      7.8214700000   11.2998840000   -8.7125310000
C      7.2155200000   12.6782180000   -8.1846160000
C      7.8782850000   13.9892360000   -8.8592110000
C      5.8197710000   12.6471560000   -8.4171120000
C      5.1335720000   11.3205300000   -7.8275010000
C      5.1360740000   13.9736130000   -7.9241970000
C      4.8811510000   11.4139960000   -6.3451710000
C      4.9124670000   13.9877940000   -6.4448350000
C      4.0971810000   12.7215380000   -5.9491380000
O      1.9113790000   13.9078630000   -4.0890180000
O      1.9468720000   11.3476200000   -4.0581420000
Si    10.2975600000   12.5047880000   -9.1095490000
C      9.3026580000   11.2065500000   -8.3083030000
N      7.1676330000   10.2437780000   -6.6262410000
C      6.3738970000   14.0239320000   -6.1059190000
N      4.0996700000   10.2916920000   -4.2500000000
C      7.1412740000   12.7266000000   -6.6684750000
C      6.3667420000   11.4264480000   -6.0351420000
C      3.3428490000   13.9642100000   -3.7573280000
C      3.3778700000   11.4501110000   -3.7212800000
C      4.0876260000   12.7354230000   -4.3033830000
O     11.7046270000   12.4715710000   -8.2418190000
S     11.5937260000    9.6219830000   -6.4558490000
C     10.7789670000   11.2362040000   -6.0930140000
C      9.3180870000   11.3538110000   -6.7741630000
C     10.8661330000   14.0617140000   -6.1686940000
N      8.4881450000   10.1994300000   -6.2769780000
C      8.6249130000   12.7262930000   -6.3594420000
S     12.5439850000    9.6921610000   -3.6483830000
C     11.2898610000    8.9762780000   -4.7781840000
N      8.3292310000   10.1283790000   -4.9480550000
C     10.5933940000   11.4253340000   -4.5776310000
C     10.5949420000   14.0943820000   -4.6279450000
Si     9.7824020000    9.8775140000   -4.2803120000
C     -1.2026370000   12.5198690000  -11.2922260000
Si    12.8160030000   12.6260240000   -3.7243620000
C      8.5013410000   12.7353780000   -4.9471500000
C      7.7925880000   11.4076220000   -4.3884280000
C      6.2936640000   11.4602910000   -4.5165350000
C      6.3345080000   14.0344260000   -4.6035880000
C     -8.1118390000   13.9266090000   -2.3016380000
Si   -11.7135820000   12.3156810000   -6.1376420000
C     -6.6135330000   11.3516340000   -2.7775230000
C     10.0145140000   12.8116460000   -2.0240550000
N     -7.9968700000   10.1160180000   -4.5815630000
C      8.2354420000   14.0876830000   -3.1551270000
C    -10.6956820000   13.8307560000   -5.7389700000
C      8.2078530000   11.4333050000   -3.0918690000
O     13.6144120000   12.5884620000   -2.2807780000
C     10.9380710000   14.1347680000   -2.1114640000
N     -9.1754220000   10.0502050000   -3.8938680000
C      9.7853490000   12.7561270000   -4.3410230000
C      3.3698560000   12.5998290000  -10.6160000000
Si    -5.0238570000   15.7461650000   16.4781490000
C      9.4120810000   14.0402840000   -6.8743260000
Si    17.9281660000   12.2135000000   -9.0995860000
Si    18.0371590000   15.4708520000   -9.2218030000
O      9.8137450000   12.4029990000  -10.6850790000
Si    -1.0494670000   12.3766950000   17.1536710000
N      7.1620000000   10.1531650000   -7.9911820000
O    -15.7198390000   10.3606370000   -8.8646470000
O     -6.9689320000   10.2798140000  -19.9745060000
Si    17.7614760000   15.7509520000    7.2493040000
N      1.1803540000   10.0430740000  -10.8986300000
C      6.3830270000    8.8235470000  -11.0609050000
Si   -19.3112940000   15.1367910000   -3.6695310000
N      5.1316720000   10.3613000000   -1.0143840000
C      4.1893020000   14.0222330000   -1.1126980000
C      4.2242410000   11.5084280000   -1.0702760000
C      5.1259210000   12.8050750000   -1.0561190000
C     -4.1325920000   12.8283620000    7.6586690000
C     -2.2958610000   14.1503340000    6.6761880000
C     -2.2557290000   11.4948130000    6.6532400000
C     -2.7369360000   12.8293290000    7.4052760000
O     -5.7234000000   12.5736710000   10.8933800000
N     -2.7704650000   10.2200720000    7.2420330000
C     -4.5640440000   14.1455930000    8.4864890000
C     -4.4886290000   11.4604890000    8.3923110000
C     -0.3287750000   12.8718260000    4.8589640000
N     -0.3104130000   10.4520740000    4.7016610000
C     -0.0623510000   11.5767770000    5.7152780000
C     -0.0856560000   14.1540400000    5.7616120000
C     -0.9671240000   14.1688360000    6.9691660000
C     -0.9246750000   11.5131140000    6.9462400000
Si    -4.0751870000   12.6721480000   10.9350930000
C     -2.0116310000   12.8485230000    8.6264630000
C     -0.8390800000   12.8545470000    7.8231990000
C     -3.7244180000   14.1628280000    9.8706930000
O     -2.7455600000   12.6131580000   11.9468330000
C     -2.2127180000   14.1887480000    9.4578870000
N     -0.6718740000   10.2478410000    7.7039470000
Si    -1.9716020000    9.9701040000    8.6244050000
C     -3.6708890000   11.3412770000    9.7814390000
C     -2.1791870000   11.5230860000    9.4543060000
N      0.3941280000   10.3586970000    8.5077740000
S     -3.9545010000    9.7287040000   10.6319880000
C     -2.3204150000    9.0564120000   10.1622710000
C      0.3204090000   12.8869640000    8.6398100000
C      7.8209150000   14.0613890000   -4.4490940000
C      0.3306500000   14.2097130000    9.5654670000
C     -1.0144340000   14.1993320000   10.4683300000
C      0.3679210000   11.5222130000    9.4629660000
C     -0.9648610000   11.3797350000   10.3812440000
Si    -1.1115090000   12.7147210000   11.5898370000
S     -1.0733630000    9.7872870000   11.3003120000
Si    -7.2570540000   12.3432620000   16.8066700000
O      0.4037270000   12.6376000000   12.2367150000
C      0.8201390000   12.8525090000    3.6834820000
C      0.6837360000   14.0622040000    2.7497790000
C      0.7113550000   11.5488960000    2.7959550000
N      0.8422930000   10.4077850000    3.7003750000
C      1.1946220000   14.1924580000    6.5489060000
C      1.2147790000   11.5918030000    6.5386530000
N      1.3585810000   10.4237350000    7.5403030000
C      1.3342740000   12.9071130000    7.5100490000
N      2.5447870000   10.3762250000    8.2191930000
O      1.6877960000   14.0191400000    1.6769720000
C      1.7083360000   11.4214160000   10.2170010000
Si     1.8651820000   12.7305990000   11.4673180000
C      2.2389550000   12.8932810000    4.5145380000
O      1.7194430000   11.4619370000    1.7260300000
N      2.2196270000   10.4736620000    4.3619200000
C      2.2221130000   14.1730970000    5.4521430000
C      3.3915670000   14.2040850000    6.3845690000
C      3.5146010000   12.8897680000    7.2394830000
C      3.3878320000   11.5480650000    6.3681010000
O      3.4772410000   12.6580760000   11.8247940000
C      2.6104750000   12.9055100000    8.3326820000
C      2.8243730000   14.2294970000    9.2315390000
N      3.3640660000   10.2806350000    7.1632820000
C      2.8020640000   11.5419500000    9.1361250000
C      3.7156670000   12.8948450000    3.7400170000
N      3.6081990000   10.4748550000    3.6335560000
C      4.4925840000   14.1759140000    4.2598760000
C      4.5964530000   14.2059810000    5.7516370000
C      4.4616310000   11.5989870000    4.2371830000
C      4.5950560000   11.5501310000    5.7347200000
C     -1.3591340000    8.7120240000  -12.7372560000
C      5.2362140000   12.8934080000    6.3360150000
C      4.3603410000   14.2414310000    9.7488350000
Si     4.7706380000   12.7592700000   10.8032120000
O      6.4408030000   12.6790990000   10.7123080000
C      5.2500300000   14.2485140000    8.4574520000
N      5.2682430000   10.2847820000    6.1644160000
C      5.2574890000   11.5820010000    8.4578630000
Si     4.8663890000   10.0220120000    7.7089340000
C      5.6170650000    9.1172660000    9.1103080000
C      4.3297250000   11.4200700000    9.6714220000
S      4.6839120000    9.8241980000   10.5245920000
N      6.6030030000   10.3855100000    6.0911560000
C      6.6496140000   12.9149330000    6.2117050000
C      7.2632360000   14.2410820000    6.8984110000
C      7.2086520000   11.5537600000    6.8231080000
C      6.8182530000   14.2489990000    8.4560640000
Si     7.4608320000   12.7685390000    9.3890050000
S      1.0137900000   14.0788560000   19.7416680000
O      9.0383650000   12.6834450000    8.9063360000
C      6.7853560000   11.4281240000    8.3814390000
S      7.3037810000    9.8328220000    9.1442430000
C      3.8372100000   12.8543860000    2.0998860000
N     -3.3535660000   10.0020680000  -10.2880820000
C      3.1726210000   11.5496960000    1.5047220000
C      3.1409910000   14.0629010000    1.4589520000
N      3.8460260000   10.4097490000    2.1257460000
C      5.9697720000   11.5989340000    4.0442470000
C      5.9787330000   14.1990630000    4.0357440000
C      6.6962080000   12.9170300000    4.6951540000
N      6.7186380000   10.4335000000    4.7304720000
N      8.0635980000   10.3742160000    4.4877500000
C      8.8139360000   14.2354020000    6.6058950000
Si     9.6552350000   12.7572850000    7.3756940000
C      8.7208510000   11.4421790000    6.5376420000
O      3.2542220000   11.4426990000    0.0372470000
O      3.2174660000   14.0010540000   -0.0092110000
C      5.4580070000   12.8765260000    1.8215390000
N      5.3254910000   10.4570620000    1.7456870000
C      6.0579100000   14.1605540000    2.5352920000
C      6.0169240000   11.5834100000    2.5263270000
C      7.5523830000   14.1803480000    2.4953610000
C      8.1886010000   12.8696680000    3.0845450000
C      7.5215690000   11.5247370000    2.5157290000
C      8.2023350000   12.9032030000    4.5016640000
O     11.1212440000   12.6813320000    6.6117370000
C      8.9520540000   14.2301260000    5.0348510000
C      8.8601900000   11.5423990000    5.0080080000
N      5.9199050000   10.4350500000    0.2928230000
N      8.0084550000   10.2627060000    3.1543880000
C      6.9699240000   11.5507190000    0.1934230000
C      6.0875250000   12.8536050000    0.2782350000
C      7.0248760000   14.1264340000    0.1616230000
Si    12.3531940000   14.1660950000   10.7175680000
C      8.0364120000   11.5085260000    1.2542990000
C      8.0647260000   14.1635170000    1.2353790000
C      8.9223070000   12.8464270000    1.2857680000
C      9.5163620000   12.8700420000    2.5754080000
C     10.4580480000   14.2300540000    4.4399420000
Si    11.4440420000   12.7525580000    4.9965570000
C     10.3067240000   14.2153000000    2.8816550000
O     12.6710590000   12.6661690000    3.8583360000
N      8.8217000000   10.2375330000    1.1656800000
Si     9.5073160000    9.9916980000    2.6117280000
C     10.3009010000   11.5481710000    2.9090190000
Si    15.5293270000   15.7880730000   10.8418930000
C     10.3754430000   11.4094670000    4.4352650000
C     10.9772280000    9.0921320000    3.2168870000
S     11.2111880000    9.8309260000    4.8799070000
N      9.7962860000   10.3224120000    0.2488380000
C      9.9239930000   12.8510860000    0.2815740000
C     10.8422270000   14.1754020000    0.3969770000
C     10.7380520000   11.4863830000    0.4044620000
O     13.4948300000   12.6286570000    0.8105220000
C     11.5046270000   14.1969300000    1.8727640000
Si    12.5884820000   12.7103950000    2.1888330000
C     11.4180630000   11.3697780000    1.8672610000
S     12.2834040000    9.7577060000    2.1220560000
C      5.0768280000   15.3008620000   -1.0992850000
C      4.1060660000   16.5103030000   -1.1580140000
C      7.8507700000   16.6835780000   -1.0138890000
C      8.9723530000   15.4611810000   -0.9503700000
C     11.7719440000   16.9445760000   -0.8669270000
O      3.2173450000   16.4381250000   -2.3100410000
Si    13.0015050000   15.6202490000   -0.8001480000
C      6.1328700000   15.3195440000   -2.3512800000
C      6.9855340000   16.6368260000   -2.1978680000
C      8.1175920000   16.6895900000   -3.1661450000
C      9.0697010000   15.4302770000   -3.1387910000
O     13.6269760000   15.6609000000   -2.3373590000
C     10.0126210000   15.4622780000   -2.0680350000
C     10.9160670000   16.7912730000   -2.1471440000
C      5.6279440000   15.2862450000   -3.9263480000
C      6.2164210000   16.5859820000   -4.5956910000
C      7.6995560000   16.6625310000   -4.4678850000
C      9.7617230000   15.4322600000   -4.3859020000
C     10.5445980000   16.7791360000   -4.6634320000
C      8.4741000000   15.3923770000   -4.9967410000
C     11.6188790000   16.9363930000   -3.5581240000
Si    12.8171060000   15.5966470000   -3.7808050000
C     -3.3927120000   12.5250560000  -10.5038460000
C      8.6193070000   15.3751080000   -6.4166750000
C      9.3838760000   16.6968510000   -6.9240880000
C     10.7741780000   16.8844490000   -6.1917330000
O     11.7127540000   15.5478540000   -8.3050420000
Si    11.8936400000   15.5401490000   -6.6599490000
C      4.0416280000   15.2318830000   -4.3314060000
C      3.2709740000   16.4550630000   -3.7657860000
C      7.1247610000   15.3431070000   -6.7207760000
C      6.2336110000   16.5776430000   -6.0617540000
C      9.3343810000   16.7955110000   -8.4666260000
Si    10.3114520000   15.4579870000   -9.1891360000
O      1.8515080000   16.3927610000   -4.0800010000
C      4.0490960000   15.2342800000   -5.9704680000
C      4.8122280000   16.5402330000   -6.4138250000
C      5.0599180000   16.5762930000   -7.8838350000
C      5.7967740000   15.3050310000   -8.4614710000
C      7.2059280000   15.3286700000   -8.2459460000
C      7.8575650000   16.6470050000   -8.8995300000
C      2.6861980000   16.4955190000   -7.7609340000
C      3.9056110000   16.5524650000   -8.6151490000
C      2.6531410000   15.2046980000   -6.8554350000
C      5.5289140000   15.2950750000   -9.8625170000
C      4.1496180000   15.2705470000   -9.5043200000
C      7.4955620000   16.7782200000  -10.4341780000
C      5.9618470000   16.6312830000  -10.5916050000
Si     8.2628210000   15.4234170000  -11.3594140000
O      7.3652000000   15.4493330000  -12.7661090000
C      3.3504190000   15.2472680000  -10.6867100000
C      5.1592210000   16.7287790000  -11.9126240000
C      3.6215280000   16.5570010000  -11.5804530000
Si     5.7085450000   15.3702900000  -12.9779940000
O      4.5117530000   15.3937910000  -14.1180230000
Si   -17.7505140000   11.9662520000    2.4802940000
C      1.1783200000   15.1702660000   -6.1462430000
C      0.9619200000   16.4056410000   -5.2318720000
C      1.7588450000   16.4833360000   -8.8964630000
C      2.0086180000   15.2343170000   -9.9601490000
C      2.5939480000   16.6509080000  -12.7323150000
Si     2.8700460000   15.3009190000  -13.9025250000
O     -0.3266240000   16.3613840000   -4.5605150000
C      0.1324430000   15.1686180000   -7.4078820000
C      0.4436180000   16.4634190000   -8.2526580000
C     -0.1274270000   15.2079790000  -10.4416540000
C     -0.3107300000   16.4914510000   -9.5393000000
C      1.0918380000   15.2135200000  -11.1818150000
O      1.4695510000   15.3542290000  -14.7838540000
C      1.1820170000   16.5201270000  -12.1153640000
C     -1.5051270000   15.1546510000   -7.1886280000
C     -2.0503880000   16.4423660000   -7.9181970000
C     -1.6651930000   16.4796840000   -9.3576280000
C     -1.2326720000   15.1954620000  -11.3437710000
C     -2.0598370000   15.1908820000  -10.1821950000
C     -1.3587140000   16.5224660000  -12.1949060000
C     -0.0804390000   16.6497090000  -13.0606880000
Si    -0.0968480000   15.2837780000  -14.2520660000
O     -1.6902630000   15.3338050000  -14.7458930000
C     -3.4317860000   15.1732790000  -10.5743240000
C     -3.7878070000   16.4758160000  -11.4476590000
C     -2.8221170000   16.6249810000  -12.6924730000
Si    -3.0975180000   15.2568120000  -13.8495310000
O     -4.7483730000   15.3052150000  -13.9468010000
C     -2.1785680000   15.1418800000   -5.6961930000
C     -1.7470710000   16.3827790000   -4.8695280000
C     -3.9925260000   15.1819310000   -9.1540650000
C     -3.4899990000   16.4382450000   -8.1918000000
Si    -5.8679240000   15.2238890000  -12.7286650000
C     -5.3146630000   16.5804640000  -11.6693360000
O     -2.3000450000   16.3576390000   -3.5245810000
C     -3.7894210000   15.1499930000   -5.9902430000
Si    19.2105400000   12.2956860000   -5.0867830000
C     -4.0828010000   16.4379010000   -6.8519210000
C     -5.9368470000   15.1833750000   -8.1480890000
C     -5.4795170000   15.1696290000   -9.4999270000
C     -5.4865840000   16.4719680000   -7.3527050000
C     -5.9996460000   16.4720540000  -10.2871320000
O     -7.5076490000   15.2991810000  -12.4989550000
C     -5.7760160000   16.4510140000   -4.9901120000
C     -4.9010240000   15.1587280000   -4.7674380000
C     -6.4059370000   16.4787680000   -6.3416450000
C     -7.3624490000   15.1837860000   -8.1277900000
C     -7.5731090000   16.6170650000  -10.1995970000
C     -7.2487370000   15.1936760000   -6.7056090000
C     -7.9950840000   16.5103660000   -8.7130310000
Si    -8.3638320000   15.2480940000  -11.0852020000
O     -9.9030410000   15.3143900000  -10.4369910000
C     -8.5503480000   15.1944330000   -6.1232640000
C     -9.3734260000   16.4999360000   -6.5773490000
C     -9.4340930000   16.6328480000   -8.1530040000
Si   -10.3991590000   15.2650020000   -8.8447230000
O    -11.7295600000   15.3221690000   -7.8591630000
C     -3.5854690000   16.3974320000   -2.8458120000
C     -4.4580260000   15.1603280000   -3.1892630000
C     -8.0668220000   15.2142840000   -4.6742170000
C     -7.0532430000   16.4654460000   -4.2732950000
C    -10.6838240000   16.6256800000   -5.7662170000
Si   -11.7971710000   15.2723390000   -6.2057810000
O     -3.1455380000   16.3849810000   -1.4572650000
C     -5.8798540000   15.1894430000   -2.3779910000
C     -6.6467710000   16.4775580000   -2.8645220000
O    -12.9109350000   15.3507750000   -4.9786300000
C     -8.0435230000   16.5293560000   -2.3469440000
C     -9.4270570000   15.2218290000   -3.9834880000
C     -8.9096000000   15.2448570000   -2.6532480000
C    -10.3201350000   16.5296080000   -4.2662320000
C     -5.9469100000   15.2183550000   -0.7254200000
C     -6.7502030000   16.5214740000   -0.3487150000
C     -9.9887890000   15.2640810000   -1.7218570000
C     -8.1001880000   16.5524050000   -0.9810940000
C     -8.9895540000   15.2770800000   -0.7041510000
Si   -12.6505610000   15.3331040000   -3.3461410000
C    -11.4683250000   16.6958230000   -3.1896560000
O    -13.4228820000   15.3971460000   -1.8643370000
C    -10.8391830000   16.5972210000   -1.7779860000
C     -9.6140480000   15.2956800000    0.5783980000
C    -10.5281680000   16.6090290000    0.7453800000
Si   -12.7748030000   15.3784020000   -0.3254380000
C    -11.5832720000   16.7387640000   -0.4266200000
C     -4.5952580000   15.2203510000    0.2014630000
O    -13.1719330000   15.4337320000    1.2823690000
C     -3.6950600000   16.4455890000   -0.1099120000
C     -7.2699720000   16.5565110000    1.0221930000
C     -8.3137960000   15.3156240000    1.3790150000
O     -2.4679950000   16.4327450000    0.6759890000
C    -11.0151280000   16.7516690000    2.2069710000
C     -5.1641310000   15.2725830000    1.7375750000
Si   -12.1592380000   15.4067380000    2.5956830000
C     -6.0539970000   16.5694380000    1.8432940000
C     -6.7938320000   16.6416610000    3.1374060000
C     -7.6637070000   15.3654670000    3.4711690000
O    -12.2307070000   15.4868870000    4.2524530000
C     -8.9144670000   15.3421810000    2.7824810000
C     -4.1563610000   15.3098160000    3.0499370000
C     -9.7746850000   16.6574120000    3.1271470000
C     -5.9610250000   16.6726350000    4.2237520000
C     -4.5191880000   16.6261450000    3.8409980000
S     15.9623110000   14.1081630000   -0.9840900000
C     -7.8945160000   15.4002350000    4.8789750000
C     -6.4743030000   15.4069360000    5.0196080000
C     -9.9652920000   16.8374890000    4.6897790000
Si   -10.9804140000   15.4848110000    5.3404240000
Si    -9.1364530000   15.5430140000    7.7428580000
C     -8.5756000000   16.7401200000    5.3714510000
O    -10.6233180000   15.5547900000    6.9735630000
C     -6.1287590000   15.4337350000    6.4055530000
C     -8.2760860000   16.8904960000    6.8873770000
C     -6.7142080000   16.7519590000    7.1114720000
O     -8.4073600000   15.6030210000    9.2300460000
C     -2.5252110000   15.2960670000    2.8931090000
C     -2.0257040000   16.5054600000    2.0625650000
C     -2.3097700000   16.7545810000    6.5462790000
C     -4.0351830000   16.6712610000    5.2269150000
C     -4.6166240000   15.4424780000    6.1847910000
Si    -6.7862530000   15.5685720000    9.5933410000
C     -6.1462070000   16.9017180000    8.5458940000
O     -0.5813310000   16.4765710000    1.8792410000
C     -2.5748890000   16.6703940000    5.0765830000
C     -1.9727070000   15.3602110000    4.4365590000
C     -2.7718970000   15.4873030000    7.3728900000
C     -4.1741480000   15.4750110000    7.6485850000
O     -5.7741310000   15.6536000000   10.9071330000
C     -4.6027150000   16.7937450000    8.4577690000
C     -2.0416740000   15.5227730000    8.6011390000
C     -0.3563120000   15.3844310000    4.7937560000
C     -0.9713490000   16.7739330000    6.8427760000
C     -0.1140130000   16.7074960000    5.6205900000
C     -0.8628850000   15.5138340000    7.7944740000
C     -3.7425650000   16.9754040000    9.7780220000
C     -2.2366400000   16.8666250000    9.4085970000
Si    -4.1145400000   15.6342030000   10.9452400000
O     -2.7858930000   15.7099460000   11.9607500000
C      0.2949670000   15.5351380000    8.6345250000
C      0.3115590000   16.8577810000    9.5434400000
Si    19.1759670000   15.6983730000    3.2555350000
Si    -1.1493340000   15.6730240000   11.6006200000
C     -1.0288770000   17.0098330000   10.3772500000
O      0.3705020000   15.7392830000   12.2613820000
S     16.6389800000   14.1321470000   11.7161490000
C      1.1497510000   16.7480610000    6.3710440000
C      1.3105710000   15.5260210000    7.4910460000
C      1.6726790000   17.0002780000   10.2736550000
Si     1.8478100000   15.6752360000   11.5016580000
O      1.6341370000   16.4942510000    1.5831880000
C      2.2066200000   15.4056610000    4.4498440000
C      2.1703450000   16.7263600000    5.3143600000
C      3.3199990000   16.8086200000    6.2673580000
C      3.4873210000   15.5487460000    7.2111740000
C      2.5920930000   15.5532680000    8.3267170000
O      3.4708950000   15.7661030000   11.8458280000
C      4.4004080000   16.7281480000    4.1409460000
C      3.6717480000   15.4067910000    3.6794780000
C      2.7955690000   16.8769120000    9.2108510000
C      4.5327680000   16.8099190000    5.6285030000
C      0.7909600000   15.3462710000    3.6241910000
C      4.3059170000   17.0515390000    9.6622800000
C      5.2175450000   16.9256410000    8.4088130000
C      5.2179150000   15.5517260000    6.3009350000
Si     4.7661720000   15.7196650000   10.8090310000
C      7.2495530000   16.8896010000    6.8655430000
C      4.8373130000   15.5776890000    7.6786390000
C      6.7655860000   17.0596520000    8.3666270000
C      6.6436710000   15.5625710000    6.1958860000
O      6.4379190000   15.7910030000   10.7212260000
C      0.6497860000   16.5459150000    2.6542920000
O      9.0427950000   15.7861730000    8.9112790000
C      3.7959850000   15.3483960000    2.0449900000
C      8.7595680000   17.0225310000    6.5415260000
C      6.6831640000   15.5352260000    4.6667310000
Si     7.4550030000   15.7295650000    9.3920450000
C      5.8483020000   16.7527400000    3.8996050000
C      7.8209770000    5.7991360000  -12.0260880000
N      6.6854870000    6.6903710000  -12.2746750000
C      7.2685240000    4.4188780000  -11.7662240000
C      8.2123710000    5.9025500000  -10.5621980000
H      8.6340310000    5.8996430000  -12.7648650000
C      6.3245910000    7.2864190000  -10.9640530000
C      5.5564620000    5.8307800000  -12.6837270000
C      7.6790430000    4.5104560000  -10.3242760000
C      5.8403910000    4.4318100000  -12.1960450000
O      7.8854950000    3.2949830000  -12.2949920000
N      7.2873190000    6.8392370000   -9.9200870000
H      9.2870940000    6.0701540000  -10.3348850000
H     13.9705580000   -8.5477780000  -16.3475020000
H     -7.4467990000   -8.2710050000   18.1446690000
C      6.6149850000    4.5998900000   -9.3084900000
O      8.5496580000    3.4314450000  -10.0089560000
H     -6.9243600000   -8.8859490000  -20.1153590000
O      5.5557740000    3.3106430000  -13.0014730000
C      7.2624400000    2.1755870000  -11.6534950000
C      6.5246450000    6.0649910000   -8.9393890000
C      5.0677510000    6.0725610000   -9.3831450000
H     16.9734260000   -8.4609740000  -13.0672280000
C      5.1610430000    4.6038460000   -9.7426180000
O      6.8075890000    3.5765330000   -8.3342400000
C      7.7179740000    2.2598120000  -10.1457220000
H     -3.1815810000   -8.2148670000   19.3999500000
C      5.7335290000    2.1840000000  -12.1231650000
O      7.8241720000    0.9833620000  -12.1604160000
H      6.7865750000    6.3074600000   -7.8923080000
H     19.2077410000   -8.3708050000   -9.2170060000
C      6.5845810000    2.3490160000   -9.0619260000
O      8.5043650000    1.1057910000   -9.8650490000
O      5.5041590000    0.9944130000  -12.8616120000
C      5.0500610000    2.3525580000   -9.5291070000
H     20.5653250000   -8.2898000000   -4.9816780000
H      1.2579830000   -8.1672620000   19.7119210000
O      6.7744830000    1.2330030000   -8.1944960000
C      7.2054050000   -0.1119030000  -11.5202080000
C      7.6637380000   -0.0366340000  -10.0297870000
C      5.6937050000   -0.1063050000  -11.9845620000
O      7.7706790000   -1.3099000000  -12.0346760000
C      6.5481470000    0.0446110000   -8.9606090000
O      8.4493950000   -1.2033990000   -9.7655510000
H      5.6529700000   -8.1303460000   19.0623880000
O      5.4724500000   -1.3011740000  -12.7312060000
C      7.1682540000   -2.4115740000  -11.4228090000
C      5.0301370000    0.0498810000   -9.4266750000
H     20.9857890000   -8.2210500000   -0.5505110000
H      9.8109440000   -8.1111560000   17.4757900000
O      6.7435920000   -1.0861550000   -8.1134820000
C      7.6063730000   -2.3445900000   -9.9439110000
C      5.6744850000   -2.4067830000  -11.8672570000
H      7.6369390000   -3.3198480000  -11.8631760000
C      6.5077650000   -2.2615860000   -8.8913280000
H      8.2275090000   -3.2444470000   -9.7321780000
H     20.4495140000   -8.1601960000    3.8624900000
H      5.5011850000   -3.3250480000  -12.4722160000
C      5.0173150000   -2.2519690000   -9.3405330000
H     16.6295060000   -8.1100310000   11.8441040000
H     13.5305120000   -8.1011500000   15.0314030000
H      6.6618970000   -3.1378510000   -8.2231360000
H     18.9744440000   -8.1275560000    8.0577730000
H      6.2184130000   -8.7339280000  -20.6238390000
H    -17.3310860000   -8.4935520000    9.4902630000
H      1.8394490000   -8.8015190000  -21.4173530000
H    -17.0577030000   -8.8415010000  -11.7334770000
H    -19.1438780000   -8.5751660000    5.4265560000
H    -19.9868200000   -8.7259220000   -3.3796660000
H    -18.9743390000   -8.7940110000   -7.7190480000
H    -14.3179140000   -8.8797210000  -15.2425030000
H    -14.6892500000   -8.4188120000   13.0682520000
H    -20.0445020000   -8.6490950000    1.0689670000
H    -10.8839940000   -8.8950650000  -18.0841940000
H     -2.6126570000   -8.8563300000  -21.2439780000
C      5.1208700000    0.0932770000   -0.7233020000
C    -10.0821320000    5.6557050000   -9.3429580000
N     -9.1443160000    6.5586670000  -10.0190770000
C     -9.4528540000    4.2856380000   -9.3173990000
C     -9.8665920000    5.7653080000   -7.8439660000
H    -11.1259930000    5.7304290000   -9.7014940000
C     -8.2541560000    5.7104750000  -10.8307110000
C     -9.2631710000    4.3801170000   -7.8327430000
O    -10.2149060000    3.1502040000   -9.5640120000
N     -8.7764840000    6.7192250000   -7.6199460000
H    -10.7685640000    5.9214120000   -7.2142520000
H     -8.3865430000    5.8063400000  -11.9290390000
O     -9.9253060000    3.2890400000   -7.2029010000
O     -8.3326980000    3.1964010000  -11.1097490000
C     -9.3720630000    2.0442320000   -9.2163910000
Si   -14.0662900000   -7.2306330000   12.4672660000
C     -9.1957120000    2.1283490000   -7.6567720000
Si    16.2589180000   -7.2757610000  -12.5715240000
Si    -6.6306110000   -7.6772960000  -19.3315150000
O    -10.0697890000    0.8418080000   -9.4665260000
Si     9.8952670000   -7.4493230000  -18.1682020000
Si   -10.8584000000   -7.1599290000   15.2778400000
Si    19.7026900000   -7.1098940000   -4.8244630000
Si    13.3814410000   -7.3597330000  -15.7128440000
O     -9.7899810000    0.9626530000   -7.0924310000
Si    -3.0412490000   -7.0304550000   18.5405560000
Si    -7.1288060000   -7.0880240000   17.3319290000
Si    18.4002110000   -7.1883300000   -8.8843380000
Si     9.4097930000   -6.9286690000   16.6999460000
Si     5.4244170000   -6.9488550000   18.2180560000
Si     1.2126310000   -6.9843820000   18.8403240000
Si    20.1058440000   -7.0439040000   -0.5798960000
Si    19.5924110000   -6.9853050000    3.6478730000
Si    15.9411450000   -6.9303730000   11.3004740000
C     -9.2302710000   -0.2408180000   -9.1222970000
C     -9.0624650000   -0.1671370000   -7.5789550000
Si    12.9726070000   -6.9212490000   14.3548900000
Si     1.7642080000   -7.5976720000  -20.5767880000
O     -9.9338210000   -1.4493140000   -9.3809600000
Si    18.1846550000   -6.9493200000    7.6717760000
Si   -18.1699090000   -7.5927300000   -7.4525590000
O     -9.6620400000   -1.3465500000   -7.0323870000
Si     5.9583350000   -7.5330560000  -19.8166480000
Si   -19.1386540000   -7.5281090000   -3.2965730000
Si   -16.3339260000   -7.6382810000  -11.2978300000
C     -9.1162560000   -2.5395910000   -9.0585380000
Si   -16.5951690000   -7.3053540000    9.0346260000
Si   -19.1910940000   -7.4563880000    0.9675480000
Si   -13.7121880000   -7.6716010000  -14.6636340000
Si   -18.3297480000   -7.3848480000    5.1415520000
C     -8.9362450000   -2.4739960000   -7.5327850000
Si   -10.4236450000   -7.6859850000  -17.3858280000
S     14.2121400000   -5.6897040000  -16.6992080000
Si    -2.5011110000   -7.6478610000  -20.4139580000
H     -9.7024170000   -3.4582150000   -9.2851540000
S    -15.0357050000   -5.5618820000   13.3186150000
S     19.5542440000   -5.5108140000   -9.4361150000
S     10.5011400000   -5.7921480000  -19.3253430000
H     -9.4085060000   -3.3836930000   -7.0961630000
S     -7.6511380000   -5.4103990000   18.4997900000
S    -11.6086930000   -5.4874340000   16.3209140000
S     17.2679250000   -5.6020410000  -13.3645250000
S      5.7245330000   -5.2694060000   19.4601590000
S      1.2585630000   -5.3067720000   20.1194620000
S     -3.2911350000   -5.3556970000   19.7995510000
S     20.9452730000   -5.4283960000   -5.1055680000
S     21.3733180000   -5.3580200000   -0.5788400000
S      9.9873110000   -5.2516820000   17.8435640000
C    -11.3288470000    7.2413510000   -1.7134830000
N    -11.1408120000    6.7907450000   -0.3059510000
N    -12.5589870000    6.6336230000   -2.2802840000
N    -10.1698490000    6.8239590000   -2.5379950000
C     -9.8921430000    6.0286340000   -0.2644520000
C    -12.2193310000    5.8439900000   -0.0120430000
C    -13.0876740000    5.7350120000   -1.2535540000
C    -12.1418490000    5.7790020000   -3.4117620000
C    -10.6410800000    5.9037440000   -3.5748780000
S     20.8295220000   -5.2961610000    3.9097790000
S     13.7927540000   -5.2398800000   15.3314430000
C    -10.2213500000    4.5614420000   -0.4268910000
S      6.2930370000   -5.8840160000  -21.0896880000
C    -11.6817980000    4.4575110000   -0.2694420000
H    -12.7391560000    6.0049140000    0.9569620000
C    -12.5214070000    4.3598620000   -1.5133710000
H    -14.1757530000    5.8277600000   -1.1084770000
C    -11.9399260000    4.3792250000   -2.8858750000
H    -12.7583960000    5.8783700000   -4.3305860000
C    -10.4583480000    4.4918620000   -3.0484460000
H    -10.2580760000    6.1093700000   -4.5974450000
C     -9.6292710000    4.5666650000   -1.8205450000
S     16.9420310000   -5.2491090000   12.0902770000
S     19.3394120000   -5.2662420000    8.2069140000
S     -2.7119930000   -6.0101360000  -21.7286120000
O    -11.9890510000    3.3760960000    0.5990800000
O    -13.3116770000    3.2296570000   -1.3843710000
O    -12.3682130000    3.2550120000   -3.6256920000
O     -9.9922680000    3.4260520000   -3.8743700000
S    -19.4002790000   -5.9439210000   -7.9196690000
C     -9.9945250000    2.3109540000   -0.2890080000
S    -17.7279160000   -5.6364700000    9.6520010000
C    -11.5501330000    2.2084000000   -0.1262550000
C    -12.4118630000    2.1175650000   -1.4504030000
C    -11.7999140000    2.1311250000   -2.9263970000
C    -10.2500670000    2.2351580000   -3.0935300000
S    -14.6621600000   -6.0330790000  -15.5946700000
S    -17.4517040000   -5.9913900000  -11.9982210000
S    -11.1456860000   -6.0483660000  -18.5043690000
S    -20.4361460000   -5.8745120000   -3.4796960000
O    -11.8314260000    1.0523800000    0.6557950000
O    -13.1512680000    0.9197350000   -1.3480440000
O    -12.2106420000    0.9383930000   -3.5785840000
O     -9.8198490000    1.0877460000   -3.8249890000
S    -19.5700150000   -5.7190490000    5.5075290000
C     -9.8743930000    0.0059540000   -0.2494770000
S     -7.1232960000   -6.0390230000  -20.5675890000
C    -11.4084170000   -0.0868910000   -0.0922770000
C    -12.2555440000   -0.1687530000   -1.4087550000
C    -11.6512840000   -0.1593770000   -2.8684640000
C    -10.1188780000   -0.0669130000   -3.0310210000
S    -20.4863710000   -5.7941850000    1.0679620000
S      1.8433170000   -5.9521570000  -21.8957800000
O    -11.7021680000   -1.2541980000    0.6804340000
O    -13.0029330000   -1.3723170000   -1.3083390000
O    -12.0732250000   -1.3589810000   -3.5175390000
O     -9.7025510000   -1.2278700000   -3.7557740000
C    -11.2892810000   -2.3928970000   -0.0764640000
C    -12.1409680000   -2.4671110000   -1.3687110000
C    -11.5306200000   -2.4603040000   -2.8017230000
C    -10.0119840000   -2.3746670000   -2.9558920000
H    -11.5215430000   -3.2930270000    0.5363830000
H    -12.7742100000   -3.3785880000   -1.2895550000
H    -11.8741870000   -3.3837480000   -3.3194730000
H     -9.6759150000   -3.2681690000   -3.5306340000
C      0.1423060000   -4.8388320000    3.9173060000
C      5.3571110000    1.3516630000    1.6528160000
H    -11.2568200000    5.9830170000    7.7093490000
C      6.0842730000    1.2658750000   -4.1559730000
H    -11.3625510000    5.9927530000    4.1869220000
O    -10.7486880000    3.3659330000    4.7071150000
C      5.4525340000    3.7519840000    3.1736570000
O      6.0893670000   -2.2944210000    3.7427570000
H      5.0951540000    7.2674760000    1.5017740000
O    -10.5998920000    1.0464310000    4.7120100000
C      3.4453470000    1.3311000000    4.7219700000
O      5.0220520000   -2.4130960000   -6.6281850000
C      5.3881160000    3.8230530000    1.6568570000
O     -2.9774360000   -4.9077350000    0.9401680000
C      4.5278490000   -3.6340490000   -6.0592350000
C      3.9877320000   -4.8868050000   -4.1411770000
O      6.9207270000   -4.8271940000   -4.4863810000
C     -2.2573470000   -6.0712440000    4.2022610000
C     -1.4613720000   -6.0081000000    5.4812130000
O      3.7569980000   -4.8807900000   -2.7348190000
C      4.8114800000   -6.0966870000   -4.5752310000
C      6.2360130000   -6.0403360000   -4.0798870000
O      4.0642380000    5.2329930000    0.0865050000
C      6.7828700000    6.1504210000    0.8826040000
H      7.4671760000    7.0074450000    1.0422830000
C      4.0407260000   -3.5725430000    3.4500270000
C      5.4599350000   -1.1120420000    3.1911440000
C      3.9472270000    1.3565260000    3.3395130000
O      3.8334010000    0.1423350000    5.4110310000
O      3.9503170000   -4.7311090000    5.6050000000
C      3.2401470000    2.6109010000    2.7687160000
O      3.2631470000    2.6303130000    1.3537960000
C      6.6559100000    3.7863750000    0.8501420000
C      4.6523550000    2.6066810000    1.0645920000
C      4.4758530000   -1.2157470000   -6.0386600000
C      4.7688340000   -3.6533680000   -4.5846150000
O     -4.2610830000   -4.8330940000    4.9077080000
C     -3.2134780000   -4.8821690000    2.3472490000
C      6.1920780000   -3.6331640000   -4.1104540000
C      5.2133950000    5.1171000000   -0.7571340000
O      7.7939110000   -4.7877120000   -1.6919170000
C     -0.1033170000   -6.0407660000    4.8260990000
C      5.6099040000    7.5427850000    9.0790450000
N      7.0017480000    7.0178070000    9.1802150000
N      4.8193630000    7.0260710000   10.2296070000
N      4.9997730000    7.0623810000    7.8102550000
C      7.2414750000    6.1754670000    8.0019230000
C      7.0496590000    6.1222220000   10.3408410000
C      5.6827660000    6.1304610000   10.9994990000
C      3.7474570000    6.1931500000    9.6851680000
C      3.8567120000    6.2111130000    8.1782690000
C      5.9924580000    6.1995420000    7.1461130000
C      6.9348290000    4.7472130000    8.3739510000
H      8.2230820000    6.3410740000    7.5235030000
C      6.7900960000    4.7199170000    9.8419460000
H      7.9304100000    6.2679140000   10.9977870000
C      5.4330130000    4.7278880000   10.4964660000
H      5.6455090000    6.2849660000   12.0973350000
C      4.2066760000    4.7620090000    9.6832910000
H      2.7846590000    6.3678650000   10.1709840000
C      4.3350040000    4.7710790000    8.1902390000
H      2.9160260000    6.4381950000    7.6567880000
C      5.6919310000    4.7640460000    7.5371770000
H      6.1580090000    6.4101010000    6.0730090000
O      7.7603990000    3.6688300000    7.9427610000
O      7.5117980000    3.6286940000   10.3307310000
O      5.3384190000    3.6410400000   11.3757400000
O      3.3365050000    3.6959770000   10.0572480000
O      3.5428660000    3.7071520000    7.6820520000
O      5.7820290000    3.6950130000    6.6055920000
C      6.9971470000    2.4884250000    8.2795500000
C      6.8196710000    2.4685700000    9.8396350000
C      5.3807090000    2.4760840000   10.5317470000
C      4.0641790000    2.5049070000    9.6814600000
C      4.2227840000    2.5165160000    8.1152290000
C      5.6839490000    2.5087700000    7.4141310000
O      7.7450390000    1.3304390000    7.9158700000
O      7.4839220000    1.3051850000   10.2932320000
O      5.3006120000    1.3156600000   11.3390280000
O      3.2985710000    1.3547470000   10.0334110000
O      3.5218560000    1.3726640000    7.6460600000
O      5.7528560000    1.3604190000    6.5789250000
C      6.9630030000    0.1859090000    8.2689420000
C      6.7832600000    0.1722570000    9.8086290000
C      5.3576400000    0.1792870000   10.4915370000
C      4.0557300000    0.2013400000    9.6537460000
C      4.2170570000    0.2161140000    8.1055270000
C      5.6637290000    0.2083260000    7.4149660000
O      7.7073730000   -0.9848290000    7.9185660000
O      7.4499040000   -0.9976400000   10.2715510000
O      5.2854350000   -0.9870750000   11.3059220000
O      3.3042970000   -0.9616950000   10.0105060000
O      3.5247950000   -0.9377040000    7.6477680000
O      5.7396100000   -0.9505390000    6.5945630000
C      6.9224270000   -2.1244050000    8.2824810000
C      6.7601160000   -2.1327830000    9.8102860000
C      5.3545970000   -2.1258910000   10.4800090000
C      4.0709460000   -2.1095160000    9.6362280000
C      4.2275540000   -2.0842620000    8.1133800000
C      5.6459100000   -2.0920760000    7.4407850000
H      7.5093390000   -3.0272200000    7.9972360000
H      7.3071340000   -3.0210770000   10.1987500000
H      5.3021970000   -3.0127060000   11.1508970000
H      3.4695970000   -3.0055910000    9.9123530000
H      3.6792610000   -2.9807020000    7.7494880000
H      5.7065230000   -2.9940450000    6.7933040000
C     10.9152680000    7.5266570000    3.2488840000
N     12.1846480000    6.9461910000    2.7362690000
N     10.6947200000    7.0756080000    4.6554330000
N      9.7967850000    7.0474510000    2.4041780000
C     11.8385300000    6.0723790000    1.5997950000
C     12.7080190000    6.0736020000    3.7906270000
C     11.7871810000    6.1609060000    4.9964960000
C      9.4676430000    6.2760360000    4.6695060000
C      8.9332510000    6.2475980000    3.2693080000
C     10.3394950000    6.1320180000    1.3988210000
C     11.6851000000    4.6691980000    2.1300190000
H     12.4715990000    6.1969820000    0.6952750000
C     12.2024610000    4.6776200000    3.5198040000
H     13.7897340000    6.1976270000    3.9749770000
C     11.2996080000    4.7547440000    4.7268640000
H     12.2601720000    6.3446010000    5.9845330000
C      9.8427210000    4.8186410000    4.5373450000
H      8.7327960000    6.5572260000    5.4416720000
C      9.3093460000    4.7865760000    3.1338380000
H      7.9189390000    6.5488670000    3.2003160000
C     10.2034350000    4.7207540000    1.9350500000
H      9.9645310000    6.3030350000    0.3742760000
O     12.1980100000    3.5538970000    1.4156090000
O     13.0272510000    3.5735740000    3.6793180000
O     11.5899210000    3.6866610000    5.6056120000
O      9.2037420000    3.7885700000    5.2939220000
O      8.3565940000    3.7392960000    3.0741720000
O      9.8195270000    3.6359390000    1.1000440000
C     11.6350740000    2.4146720000    2.0981310000
C     12.1659090000    2.4310750000    3.5862910000
C     11.2184340000    2.5024710000    4.8691580000
C      9.6669870000    2.5608820000    4.6788140000
C      9.1250350000    2.5351580000    3.1961500000
C     10.0806170000    2.4668390000    1.9012600000
O     12.1153810000    1.2284080000    1.4740410000
O     12.9360420000    1.2561150000    3.7260280000
O     11.4893650000    1.3579340000    5.6653910000
O      9.1081190000    1.4402760000    5.3648210000
O      8.2752600000    1.4037390000    3.1230870000
O      9.7296280000    1.3030660000    1.1613360000
C     11.5512920000    0.1188090000    2.1722340000
C     12.0730680000    0.1388590000    3.6411690000
C     11.1333640000    0.2046920000    4.9119910000
C      9.5995230000    0.2536460000    4.7265320000
C      9.0715060000    0.2352490000    3.2569360000
C     10.0166430000    0.1680520000    1.9794840000
O     12.0368490000   -1.0796540000    1.5580660000
O     12.8503810000   -1.0435620000    3.7802730000
O     11.4159920000   -0.9445260000    5.7067760000
O      9.0538810000   -0.8803770000    5.4060480000
O      8.2364430000   -0.9037880000    3.1812810000
O      9.6819190000   -1.0081170000    1.2477750000
C     11.4794070000   -2.1882670000    2.2687670000
C     12.0135210000   -2.1629090000    3.7151820000
C     11.0769770000   -2.0990230000    4.9586860000
C      9.5563850000   -2.0575200000    4.7645150000
C      9.0320440000   -2.0657580000    3.3211070000
C      9.9668840000   -2.1344770000    2.0769640000
H     11.8615940000   -3.1135680000    1.7807210000
H     12.6632420000   -3.0577500000    3.8406020000
H     11.3112160000   -2.9784340000    5.5998950000
H      9.1185640000   -2.9302820000    5.3008490000
H      8.3716020000   -2.9536350000    3.2572110000
H      9.7021230000   -3.0472900000    1.4985860000
C     11.2328010000    7.4243360000   -4.7252850000
N     12.1473570000    6.8312850000   -5.7345730000
N     11.6346880000    6.9832900000   -3.3587790000
N      9.8547880000    6.9694170000   -5.0141380000
C     11.3318580000    5.9566780000   -6.6036510000
C     13.0597120000    5.9514230000   -5.0030180000
C     12.7589620000    6.0578290000   -3.5180150000
C     10.5243110000    6.2020230000   -2.8169690000
C      9.4402700000    6.1823360000   -3.8619610000
C      9.8906620000    6.0472830000   -6.1495260000
C     11.3897570000    4.5574830000   -6.0412210000
H     11.5238060000    6.0604500000   -7.6931350000
C     12.4652050000    4.5625890000   -5.0118910000
H     14.1121800000    6.0649040000   -5.3062530000
C     12.1908790000    4.6585890000   -3.5336520000
H     13.6192980000    6.2398490000   -2.8389000000
C     10.7924670000    4.7394620000   -3.0861000000
H     10.2167340000    6.4825190000   -1.7950510000
C      9.7010260000    4.7144110000   -4.1278920000
H      8.5003760000    6.5154350000   -3.5366600000
C      9.9674140000    4.6390910000   -5.5894010000
H      9.1257960000    6.2334980000   -6.9330690000
O     11.5144890000    3.4329440000   -6.8922920000
O     13.2606310000    3.4469800000   -5.2088330000
O     12.8356430000    3.5907460000   -2.8567420000
O     10.5354890000    3.7207920000   -2.1175070000
O      8.8138960000    3.6739750000   -3.7667150000
O      9.2312750000    3.5575720000   -6.1544230000
C     11.2925040000    2.3061100000   -6.0216120000
C     12.4318960000    2.3183310000   -4.9080970000
C     12.1663650000    2.4079320000   -3.3434540000
C     10.6814690000    2.4851620000   -2.8587780000
C      9.5476090000    2.4619210000   -3.9699700000
C      9.8068250000    2.3817380000   -5.5413980000
O     11.4335540000    1.1136910000   -6.7822690000
O     13.1719590000    1.1339000000   -5.1088280000
O     12.7556050000    1.2636430000   -2.7361030000
O     10.4658530000    1.3724970000   -1.9885220000
O      8.7507450000    1.3363490000   -3.6618450000
O      9.1411820000    1.2206630000   -6.0341490000
C     11.2226810000    0.0135800000   -5.9027440000
C     12.3481560000    0.0294840000   -4.8018430000
C     12.0912890000    0.1104890000   -3.2488810000
C     10.6266550000    0.1775040000   -2.7666910000
C      9.5123380000    0.1609870000   -3.8735430000
C      9.7563530000    0.0804150000   -5.4253490000
O     11.3745640000   -1.1877940000   -6.6623230000
O     13.0939190000   -1.1612870000   -5.0088180000
O     12.6888590000   -1.0426090000   -2.6531120000
O     10.4190110000   -0.9498870000   -1.9113770000
O      8.7281830000   -0.9704920000   -3.5770290000
O      9.1064140000   -1.0936300000   -5.9181250000
C     11.1800270000   -2.2898120000   -5.7796490000
C     12.3038370000   -2.2698870000   -4.7064060000
C     12.0333600000   -2.1950240000   -3.1763430000
C     10.5826660000   -2.1332860000   -2.7021060000
C      9.4853410000   -2.1404210000   -3.7852190000
C      9.7303180000   -2.2263940000   -5.3049120000
H     11.3037120000   -3.2165310000   -6.3840100000
H     12.9340600000   -3.1702440000   -4.8806800000
H     12.5106020000   -3.0829050000   -2.7039590000
H     10.4107960000   -3.0006870000   -2.0242020000
H      8.8713770000   -3.0303510000   -3.5578180000
H      9.2090820000   -3.1308920000   -5.6945570000
O     13.5087620000   15.7082340000    0.7772810000
Si    12.5948360000   15.6826490000    2.1611110000
C     11.4192610000   17.0161250000    1.8072950000
C     10.8230810000   16.8303920000    0.3506260000
C      9.9242980000   15.5005000000    0.2434700000
O     12.6800900000   15.7576880000    3.8293770000
C     10.2626910000   16.8964060000    2.8343860000
Si    11.4540340000   15.7149620000    4.9694240000
C     10.3734660000   17.0439830000    4.3761340000
C      8.9014680000   15.5041520000    1.2400870000
C      9.4975290000   15.5451420000    2.5366800000
C      7.9530000000   16.7648470000    1.1526040000
C      6.8970080000   16.6777570000    0.1007630000
C      6.0327620000   15.3659450000    0.2313760000
C      8.9296380000   16.8802650000    5.0071940000
O     11.1399240000   15.7758110000    6.5949310000
C      8.1998490000   15.5515530000    4.4786770000
C      8.1656990000   15.5283880000    3.0499040000
C      7.4385210000   16.7837570000    2.4214590000
C      5.9477030000   16.7129700000    2.4346720000
C      5.4097850000   15.3892370000    1.7646020000
O      3.1339950000   16.4784290000   -0.0741750000
Si     9.6766480000   15.7027320000    7.3789680000
O      4.9785050000    0.0267430000   -6.6273710000
Si   -16.5250630000    6.0206580000    6.3892570000
S    -16.6025980000    7.4025710000   -1.3854190000
H      5.6680320000    7.2518390000   -0.5492110000
C      1.1188170000   -6.0142990000    5.7089170000
C      6.1298070000   -6.0390090000   -0.3817630000
C      6.1927790000    6.2619180000   -0.5073150000
O      4.0650880000   -4.8521160000    0.1656860000
Si   -17.8884890000   -4.4034770000   -1.2002340000
Si    -2.5088040000   -4.4664680000  -20.2455100000
S    -20.5182950000    7.4124070000   -3.7052060000
Si   -16.6298720000    5.9874790000    8.7480790000
Si   -18.3297230000    5.9175350000    4.8786740000
Si   -16.6437240000    2.5146580000    6.5005540000
S    -17.8182760000    4.3057820000    9.4486850000
P    -13.5284990000    4.2856160000    7.0033680000
Si   -14.5552710000    6.0772690000    9.8674440000
Si    -0.3552660000   -4.5260420000  -19.2623240000
O      6.0258240000    2.5442160000    3.6905680000
P    -15.4013010000   -2.6257490000   -2.9452910000
Si   -16.3535470000   -2.5038090000    2.4843910000
Si   -18.1735010000   -0.9167610000   -1.2608410000
S    -20.5524650000    0.7270640000    0.9977680000
Si   -13.6187360000    4.2213830000    9.2253680000
Si   -17.8560340000    2.4397370000    2.7077500000
Si   -14.1260190000    6.0694410000   12.1919470000
C      6.0113210000    3.8085780000   -0.4870600000
S    -19.6295880000    4.2321570000    5.3276820000
S    -14.7753110000    2.1737780000    0.5528590000
Si   -16.2434030000    8.8721990000   -9.0980460000
C      5.2286290000   -4.8382390000   -0.6596240000
H     12.7293430000   17.0924950000   11.0617410000
Si   -16.8521550000    0.7583190000   -1.2700190000
S    -20.3658490000   -2.6295130000    1.0171540000
Si   -19.0913120000   -0.9672260000   -3.4142200000
Si   -16.2746140000    8.8403630000  -11.4353210000
S    -14.7872660000   -0.5682340000   -3.0656890000
Si    -8.1076330000   -1.0822030000  -17.5093500000
S     -7.1378220000   -2.8637670000  -20.4904980000
H     13.1044150000   17.0321260000   14.4958240000
O      7.3905010000    0.1267910000    1.0437940000
O     -7.4730930000   10.8746010000   17.3862600000
Si   -14.1788360000    8.8331840000  -12.4720830000
H     19.9897160000   16.9094780000    3.4316060000
Si   -17.7335120000    5.9477300000    2.6004630000
Si   -10.3235080000   -4.5031230000  -17.2550620000
Si    -7.9631690000   -4.5722450000  -17.2450230000
Si   -10.4313110000   -1.1115660000  -17.4477090000
H      6.4176690000   17.0747590000   15.2167910000
P     -8.3400960000   -2.7137510000  -14.2219980000
Si   -18.2935690000    2.3569120000   -1.3178050000
Si   -18.9699290000   -4.2792820000    0.8971390000
Si   -19.1286420000   -0.8966540000    0.8651430000
Si   -16.4489200000    0.8166570000    2.4659600000
Si   -15.4430900000    4.1915870000    5.9331590000
C      6.7807420000   -5.9783920000    0.9779090000
O      6.8172380000   -2.3779490000   -4.5504390000
Si   -17.4918380000   -4.3416660000    2.7415010000
P    -15.3855630000   -2.5640890000    0.5149440000
S    -13.8047140000   -0.4808380000    3.5614850000
Si   -16.5699170000    4.1199780000    2.4208250000
Si    -7.5148530000    0.6222800000  -16.3439070000
Si   -16.6776500000    2.5751250000    8.8396430000
S    -10.5064270000    7.2693410000  -14.2042300000
H    -13.8124800000   16.4411380000  -12.2442670000
S    -20.3235100000   -2.7074150000   -3.5260830000
H    -15.8314310000   16.4752370000   -8.9788060000
S    -19.4603710000   -2.5577510000    5.4077330000
H      5.3129900000   17.0039560000   18.4935240000
O      7.5304930000   -4.7548580000    1.1851770000
Si   -18.3855260000    2.5041560000    4.9663050000
S     -7.2476170000    0.5125270000  -20.7000260000
Si   -16.3655380000    5.6762150000  -11.4494420000
Si   -18.1200990000   -4.2104840000    5.0124100000
C    -15.0204180000    0.8687160000    3.9225730000
C    -15.9971620000    0.7277700000   -3.1167330000
S     14.0053880000    7.5849130000  -16.8696610000
S    -13.3039070000    4.0168340000   -9.5667150000
S    -20.5088690000    0.6549490000   -3.6282820000
S    -20.5380390000    4.1457920000    0.9172710000
Si   -14.3876080000    2.2260890000  -12.5570910000
H     10.2584710000   16.6457110000  -15.8033200000
Si   -16.3044500000    5.7735800000   -9.0981310000
Si   -16.4227090000    2.2577880000  -11.4360240000
S    -12.5955410000    2.0800000000   -8.9822580000
Si   -10.7265000000    3.9191870000  -14.4860240000
Si   -13.2600960000    0.6259130000  -11.6654430000
P    -11.2502880000    4.0225370000  -12.3578250000
S    -17.3748880000   -2.8217450000  -11.9609550000
Si   -13.8104330000    2.2341820000  -14.8322350000
Si   -15.2157420000    3.9557430000   -8.5750020000
S    -17.5574150000    0.5424680000  -12.0870350000
Si   -18.1625390000    5.7234830000   -7.6501220000
H    -14.8860200000   16.6381900000   12.6009580000
Si   -10.5039740000    5.6472550000  -17.5245220000
Si   -16.4209840000    2.2680680000   -9.1050910000
S    -19.4491960000    4.0280800000   -8.1012690000
C    -13.5097130000    0.6609920000   -9.6290080000
S    -14.6002820000   -2.8604650000  -15.5616670000
Si   -17.6465760000    5.8323910000   -5.3556010000
Si   -14.2821060000   -1.0700580000  -12.4551300000
H      5.8806260000   16.3372470000  -20.9427960000
Si    -8.1490560000    5.7291000000  -17.5508260000
C    -11.4937480000    0.6275310000  -12.6279460000
Si   -11.5603490000    2.2282410000  -15.4944930000
S    -12.4681100000   -0.6429110000   -8.9099270000
S    -13.7912980000    2.1191120000   -6.0761740000
P    -14.7018500000    4.0785600000   -6.4146600000
S    -11.2294280000    3.9435010000  -18.6692580000
S    -14.7502840000    0.5134860000  -15.7387620000
P     -8.5026040000    4.0224140000  -14.4567220000
Si   -18.2257310000    2.3099480000   -7.6396520000
H    -16.0244890000   16.7010500000    5.9337700000
C     -2.0137290000   -4.8685000000    3.2939900000
Si   -15.1278160000    0.6561810000   -8.4586230000
Si   -13.5789580000   -4.4900760000  -14.5604470000
S     -7.9420190000    2.0626910000  -13.6863310000
S    -13.3195660000    7.5915530000    8.9248080000
Si   -13.7183980000   -1.1020910000  -14.7278330000
H     17.7088730000   16.9440410000   -2.9194700000
Si   -16.5023940000    4.0125220000   -5.0957210000
Si   -19.1326810000    5.7714000000   -3.5171590000
H      1.5291580000   16.2764120000  -21.7367390000
Si   -10.6372520000    0.6129330000  -14.4174280000
Si   -16.0868190000   -4.5151640000   -8.8601400000
C      5.0810520000    2.5962220000   -0.3872880000
Si   -13.1566130000   -2.6797430000  -11.5686260000
Si   -10.5125760000    2.2298840000  -17.5658170000
Si    -7.5931910000    3.9181820000  -16.4724690000
P    -13.0607910000   -2.6878360000   -9.3549630000
C    -14.9164810000    0.7029350000   -6.4436820000
Si   -16.3197410000   -1.0368030000   -9.0137650000
Si   -17.7923270000    2.3256500000   -5.3632350000
S    -20.4906980000    4.0784960000   -3.6639880000
S    -17.8429880000    7.6447440000    9.4068330000
Si   -11.2742070000   -4.5839520000  -15.0944530000
H     -2.8945110000   16.2301090000  -21.5747380000
C     -8.6000090000    0.6486180000  -14.6480760000
S    -19.4671310000    0.5955800000   -8.0654230000
S    -11.0872070000   -2.8732520000  -18.4643370000
Si   -18.1363760000    5.8666150000   -1.3765460000
Si    -8.1843860000    2.2232440000  -17.6372560000
P    -11.0379070000   -2.7234940000  -12.1356920000
S    -11.2114260000    0.5049320000  -18.6631030000
Si   -17.9683770000   -4.4139190000   -7.4378020000
Si   -11.4690450000   -1.0988980000  -15.3770260000
Si   -15.0386210000   -2.6599360000   -8.3856330000
Si   -16.4199590000    0.6961540000   -5.0467260000
C      3.5316760000    0.1098760000    2.5543880000
H    -17.5775150000   16.5719260000   -1.5396360000
Si   -18.1272550000   -1.0294370000   -7.5570030000
O     -1.6946560000   -4.7851150000    6.2242210000
Si   -16.1619520000   -4.4563180000  -11.2204490000
Si   -14.0329510000   -4.5541360000  -12.2369910000
H     10.3303370000   -8.6448870000  -18.9047330000
Si   -13.3617440000    3.9035900000  -11.7394190000
S    -10.6660330000    2.0067390000  -11.9333520000
Si   -14.2606610000    5.7340610000  -12.4955660000
S    -13.7157690000   -0.6324300000   -6.0084180000
S    -14.8983520000    2.1014430000   -3.1517360000
P    -15.6348540000    4.1505740000    0.4394370000
Si   -19.2369140000    2.4249620000    0.8182000000
S     -7.8810600000   -0.6719720000  -13.5988720000
Si   -16.9805510000    4.0238100000   -1.3274460000
Si   -19.1953870000    2.3600850000   -3.4831920000
Si   -18.9267860000   -4.3508290000   -3.3268410000
C      4.8631490000    2.5706150000   -2.5938500000
Si   -13.7750790000    5.6485100000  -14.8078800000
H    -14.5318180000   16.1936370000  -15.6135110000
C      3.4763130000   -1.0772860000    4.7610690000
Si   -19.1812170000    5.8356020000    0.7384060000
Si   -16.3041790000   -2.6284580000   -4.9363370000
Si   -17.6855750000   -1.0024470000   -5.2850550000
H    -17.2606160000   16.2170180000  -12.1160630000
S      9.8709000000    7.4781460000  -14.9652150000
Si   -10.5558620000   -2.7124870000  -14.2674260000
Si   -16.3203770000   -1.0709250000  -11.3418040000
S     -7.2599490000    3.9505700000  -20.7117170000
S    -10.5743900000   -0.6499940000  -11.8281110000
H    -11.3392120000   -8.3461140000   16.0008250000
S    -19.2907760000   -2.7761390000   -7.9497100000
S    -17.5405580000    3.9735980000  -12.1258220000
H      0.9573720000   16.9595290000   19.1409910000
P    -15.6404620000    4.1155770000   -3.0860260000
H     -1.0573320000   17.0059730000   16.3323220000
H     16.7457500000   17.0453570000    4.6262280000
Si   -13.7037200000    8.8138050000  -14.7622020000
H     20.1539980000   16.7524900000   -5.3590990000
H    -20.1854350000   16.3114830000   -3.7945380000
H      6.8986460000   16.5768050000  -17.6502650000
H    -17.5326770000   16.5465770000    9.0394040000
H     18.8125780000   16.6628880000   -9.5924890000
H    -11.4773600000   16.8319610000   12.0436800000
H     -3.4371600000   16.8937700000   18.8410060000
O     13.3744400000   10.5602480000  -16.2612800000
H      9.4272900000   17.0273350000   16.9212030000
H     20.5470440000   16.8373400000   -0.9520420000
H     16.9619460000   16.8759480000   -6.6787610000
H     15.4092790000   16.8025500000  -10.1852410000
H     15.0814050000   17.0753430000    8.0625480000
H     -4.8078570000   16.9530620000   15.6686000000
H     17.6339630000   17.0028640000    0.9056550000
H      2.7431580000   17.0500000000   16.1802040000
H    -11.5461630000   16.7314670000   15.4951200000
H      9.9650250000   16.4045500000  -19.2378400000
H    -14.0861880000   16.7665220000    9.2428810000
H     18.5075830000   16.9688600000    7.5964130000
H     16.1750710000   17.0118600000   11.3380490000
Si   -11.4330860000    8.8189300000  -15.3231020000
H     -8.3356910000   16.8949990000   14.2152790000
H     -4.3705220000   16.4366850000  -18.4561490000
H    -11.1182710000   16.1906070000  -18.4379520000
H     -7.1787030000   16.2022550000  -20.4572060000
H      9.7969040000   17.0876450000   13.4832400000
H     16.5900990000   16.5726880000  -13.4263970000
H     13.5954880000   16.4828990000  -16.6914410000
H     -0.5879440000   16.4690190000  -19.0119130000
H    -20.2443200000   16.3791140000    0.6521180000
H     13.1399790000   16.7257780000  -13.2734600000
H      3.2264900000   16.5183780000  -18.7360100000
H    -19.1726400000   16.2579530000   -8.1148160000
H     -7.6712280000   16.8165010000   17.6060570000
H    -19.3443360000   16.4598520000    4.9950570000
H    -17.2061950000   16.6348250000    2.2853290000
H    -11.1411200000   16.4230740000  -14.9928140000
C      2.1213530000   -6.0227400000    4.5838620000
Si   -11.4854560000    5.7354970000  -15.3843420000
H     -7.9417560000   16.4220650000  -17.0933630000
Si   -17.4146270000   -4.4790200000   -5.1433180000
Si   -18.2782660000   -0.8294860000    4.9965730000
S    -12.9095820000    2.2832260000    6.4761260000
H    -17.1067980000   16.5180430000   -5.3558790000
S    -19.6402910000    0.8045210000    5.4011760000
Si   -17.7398540000   -0.8659800000    2.7417470000
Si     1.7135440000   -4.4158190000  -20.3965680000
C    -13.8017060000    0.9123110000    7.1858300000
C      5.8929480000   -6.0608660000   -2.6095840000
C      7.0155260000   -6.0400920000   -1.6014090000
S    -15.1241010000    4.3944670000   13.1588790000
O      6.1752060000   -4.7388290000    3.7626090000
Si   -15.3451060000    0.8801140000    5.9391570000
Si   -14.6715590000    2.5686860000   10.0365580000
P    -11.5147530000    4.3514010000    9.8909670000
P    -14.5081670000   -2.6605250000   -6.2400720000
C      4.1753910000   -2.4267110000   -3.8690180000
S    -17.6430330000   -2.4743770000    9.5127380000
Si   -16.2871860000   -4.2724780000    6.4980870000
Si     9.6562080000    5.8561450000  -18.2742170000
P    -14.6115940000   -2.4985520000    3.8565470000
O      3.9560250000    0.0933900000    0.0832170000
C      5.0630120000    5.0984060000   -2.2967710000
Si     7.2963300000    5.9029350000  -18.1601280000
Si   -11.8508590000    6.1752520000   12.8288270000
Si    -4.2844350000   -4.5655430000  -18.6819120000
C      3.5868430000   -5.9620690000    4.9313910000
S    -13.8887690000    2.2798720000    3.5314710000
Si     6.8544030000    4.0768400000  -17.0882710000
P      7.9609280000    4.1883200000  -15.2042420000
S     10.3514640000    4.1689050000  -19.4595860000
S    -17.8317730000    0.8837620000    9.5142270000
Si   -16.4153100000   -4.1315150000    8.8551640000
Si   -13.5007980000    0.9575780000    9.2177200000
Si   -14.1488970000    2.6563440000   12.3231010000
Si     3.5846680000   -4.4665570000  -18.9553690000
S    -11.2755670000    7.2824810000  -18.6993340000
Si     5.8389410000   -4.3543480000  -19.6483830000
S    -14.6766600000   -0.5202130000    0.5593800000
S    -14.7565840000    3.9474010000  -15.7467170000
S      7.5073080000    2.1671630000  -14.6492610000
Si   -16.7637670000   -2.5407420000   -1.2170220000
C      3.2994910000   -2.3692430000    2.8396590000
C      4.7069290000   -1.1873290000   -4.5807190000
Si     6.8522710000    0.7643570000  -17.0011010000
Si    10.1645890000    4.1070860000  -15.2401980000
Si     7.3960430000    2.3957240000  -18.2943110000
S    -17.5543990000    7.3135400000  -12.1945900000
S    -14.9298480000    7.3269000000   -8.4638320000
S     -7.4581540000    7.2813940000  -16.2037880000
S     -7.2715830000    7.2920310000  -20.7607220000
S    -20.5727710000    7.4795500000    0.8391460000
S    -16.2369890000    7.4790110000    2.2561710000
S    -15.1647250000    7.7371780000   13.0825760000
S     12.5990140000    7.5692260000  -12.5301120000
S    -19.6637660000    7.5650510000    5.2684070000
S     17.0468630000    7.6805660000  -13.5459410000
S    -15.1250940000    7.5453800000    5.7441480000
S     14.7731850000    7.6391490000   -9.5894280000
S      6.6767740000    7.4207770000  -16.7407890000
S    -19.4797210000    7.3594670000   -8.1345750000
S     19.3334560000    7.7673610000   -9.6310360000
S     10.3081660000    7.5069790000  -19.4984090000
S     16.2800620000    7.6911830000   -6.2596320000
S      1.1097450000    8.0558910000   19.9115570000
S     20.7257530000    7.8580070000   -5.3038970000
S    -16.1492300000    7.3642220000   -5.0166280000
S      2.7661820000    7.8941610000   15.6653190000
S     17.0007220000    7.7690080000   -2.6734920000
S    -14.7820280000    7.2860140000  -15.7852630000
S      5.5672780000    8.0970210000   19.2580710000
S    -13.0418690000    7.2764340000  -11.5753850000
P     12.8231090000   -2.0979780000    8.8603330000
C      2.7944300000   -4.9049790000   -5.0966300000
Si    14.9395150000   -2.0651790000    8.1966040000
S     12.1274640000   -0.0876250000    8.3551760000
Si    12.6351740000   -2.0377940000   11.0571630000
Si    16.1183270000   -0.3977710000    8.9098240000
Si    15.9318060000   -3.8981500000    8.7850720000
H      7.7819120000    7.0101410000   -1.6727900000
P     14.7165160000   -2.1374080000    6.0272940000
C     13.1120120000    1.2823760000    9.0877920000
Si    13.6244460000   -0.3655630000   12.0087490000
P     10.4523000000   -2.0901060000   11.3393220000
Si    13.4864010000   -3.8699690000   11.8812380000
Si    18.0363580000   -0.3814800000    7.5650520000
Si    14.9771320000    1.2705810000    8.2312100000
Si    15.8045230000   -0.3565550000   11.2039740000
Si    17.9402530000   -3.7781770000    7.5361890000
P    -14.8247440000    4.2422220000    3.7957930000
Si    15.7235430000   -3.7586010000   11.1336200000
Si    16.5371600000   -2.0738350000    4.7986620000
S     14.0968190000   -0.0864830000    5.8853530000
S     12.1434990000    2.6547200000    8.3352300000
Si    12.6495470000    1.2926060000   11.0540950000
Si    12.8828090000   -0.3450890000   14.2148560000
S      9.9858180000   -0.0732000000   10.6707000000
Si     9.8396450000   -2.0315410000   13.4663120000
Si    12.8038850000   -3.7482800000   14.1399330000
S     19.2972670000    1.2830560000    8.1483180000
S     19.1850510000   -2.0981890000    8.1124690000
Si    17.8377360000   -0.4132580000    5.2302340000
Si    16.1585790000    2.9336620000    8.9112770000
C     15.1978650000    1.2381980000    6.2650050000
S     16.8905730000    1.3140530000   12.0638270000
S     16.7937490000   -2.0786200000   11.9946540000
Si    17.6278820000   -3.9132190000    5.1926440000
P     15.7516920000   -2.1781110000    2.7297930000
O      5.0523640000   -4.8614470000   -6.6896910000
P     12.8731830000    4.6430280000    8.8589450000
Si    13.6516120000    2.9486250000   12.0234850000
C     10.7309830000    1.2838250000   11.6311470000
S     13.7909820000    1.3223710000   15.2645610000
Si    10.5972070000   -0.3698770000   14.6177140000
S     13.6999870000   -2.0682240000   15.1813040000
P      7.6572360000   -2.1047730000   13.3218310000
Si    10.4619030000   -3.8764600000   14.4224100000
Si   -16.5338200000   -0.7975530000    6.5224050000
Si    18.0708550000    2.9569850000    7.5485420000
Si    19.4100100000   -0.4217370000    3.5159040000
Si    16.5595900000    1.2314810000    4.7665970000
Si    14.9961220000    4.5730600000    8.1910330000
Si    15.8327980000    2.9941100000   11.2076450000
S     14.1308060000    2.5729730000    5.8695520000
Si    19.3162820000   -3.8128550000    3.5440410000
Si    17.3016610000   -2.1417030000    1.1676460000
S     15.0113180000   -0.1633440000    2.4237750000
Si    12.6684170000    4.5905630000   11.0654370000
Si    12.9026600000    3.0013590000   14.2329480000
S     10.0086560000    2.6436360000   10.6696630000
Si     9.8721910000    1.2912710000   13.4957260000
Si     9.3200170000   -0.3539650000   16.5823540000
S      7.3577310000   -0.0487680000   12.7945480000
Si     6.4977980000   -2.0447000000   15.1741130000
Si     9.2783410000   -3.7567080000   16.4711230000
C    -15.9074420000    0.7912230000    0.5553140000
S     19.2129980000    4.7222010000    8.0565010000
Si    17.8839120000    2.8719440000    5.2078640000
S     20.7765550000    1.2378420000    3.7760420000
S     20.6548760000   -2.1313410000    3.8145910000
Si    18.6704530000   -0.4743940000    1.3063420000
C     16.1779540000    1.1866480000    2.7440850000
Si    15.9519110000    6.4369850000    8.7254650000
P     14.8075100000    4.5969540000    6.0150540000
S     16.8144770000    4.7652680000   11.9695420000
Si    18.4954670000   -3.9590010000    1.3327700000
Si   -16.5720390000   -0.7484000000    8.8567580000
P     16.1028020000   -2.2220670000   -0.6914340000
Si    13.4864730000    6.4493460000   11.8527070000
P     10.4822720000    4.6434580000   11.3734260000
S     13.7093030000    4.7714640000   15.1816320000
Si    10.6161560000    2.9456250000   14.6519730000
C      7.8988080000    1.2723020000   13.8260260000
S      9.9476280000    1.3120120000   17.8237240000
Si     6.9794950000   -0.3825230000   16.4668710000
S      9.8998620000   -2.0802850000   17.7026360000
P      4.4155180000   -2.1030240000   14.4191430000
Si     6.9252160000   -3.8898280000   16.2313310000
S    -12.7812910000   -0.4092250000    6.5157520000
Si    17.9342370000    6.3737860000    7.4377610000
S     21.1495280000    7.9470860000   -0.7845000000
Si    19.4445340000    2.9084320000    3.4787180000
Si    16.6046060000    4.5026560000    4.7449260000
Si    19.9119160000   -0.4851230000   -0.6540410000
Si    17.3208560000    1.1776390000    1.1103510000
S     15.0652790000    2.5428240000    2.3518600000
Si    15.7101790000    6.4148310000   11.0693230000
Si    19.8190780000   -3.8727570000   -0.6192780000
Si    17.3844140000   -2.2050430000   -2.5047430000
S     15.2128640000   -0.2188160000   -0.7192610000
Si    12.7815150000    6.4231660000   14.1036560000
S      6.3062660000    7.9010620000   14.7665300000
Si     9.8644880000    4.5797030000   13.5110800000
Si     9.3244320000    2.9929830000   16.6143580000
S      7.3705400000    2.6028930000   12.8204980000
Si     6.4824770000    1.2836510000   15.2314530000
Si     5.3200060000   -0.3711120000   18.0864010000
S      4.1434930000   -0.0856960000   13.6405030000
Si     2.9145190000   -2.0671890000   16.0317680000
Si     5.3269050000   -3.7751240000   17.9662240000
Si    17.6494040000    6.3780860000    5.0904310000
S     20.6781550000    4.6665220000    3.7243470000
Si    18.7075150000    2.8343240000    1.2638110000
P     15.8259910000    4.5499710000    2.6572160000
S     21.3026270000    1.1762690000   -0.6482020000
S     21.1887510000   -2.1953770000   -0.6082180000
Si    18.7584190000   -0.5431690000   -2.6613430000
C     16.4557030000    1.1526760000   -0.7299790000
Si    18.5621820000   -4.0258390000   -2.6110780000
P     15.8944270000   -2.2871570000   -4.1050860000
O      7.6848830000    2.5068750000   -1.6928030000
Si    10.4483690000    6.4515060000   14.4330780000
S     16.9450990000    7.8338410000    0.9858320000
P      7.6758550000    4.6357300000   13.4060090000
S      9.8885990000    4.7622760000   17.7265470000
Si     6.9773510000    2.9375390000   16.5136540000
C      4.4722060000    1.2743780000   14.8140310000
S      5.6328260000    1.2930820000   19.4425730000
Si     3.0994570000   -0.3971740000   17.3945270000
S      5.6354910000   -2.0974230000   19.3079540000
C      5.4271220000    1.3636850000    3.1575340000
Si     3.0978830000   -3.9052080000   17.1963900000
Si    19.3018140000    6.3230660000    3.4118060000
Si    19.9457640000    2.8535350000   -0.7028740000
Si    17.3599140000    4.4857330000    1.0780010000
Si    19.5131320000   -0.5521490000   -4.8756560000
Si    17.4278760000    1.1214410000   -2.5339280000
S     15.2331700000    2.5400870000   -0.7700170000
Si    19.4231320000   -3.9381720000   -4.8133220000
C      5.0714560000   -4.8477470000   -2.1800400000
Si    16.6614740000   -2.2414600000   -6.1753500000
S     15.2573920000   -0.2453840000   -3.8340890000
Si     9.2349650000    6.4146130000   16.4628700000
S      9.8336020000    8.1218920000   17.6415430000
Si     6.4807990000    4.5738790000   15.2410410000
Si     5.3044350000    2.9757830000   18.1259890000
S      4.1261950000    2.6394860000   13.6538710000
Si     2.8866920000    1.2676050000   16.0502730000
Si     1.1737380000   -0.4077630000   18.6970910000
Si     1.1847680000   -3.8108610000   18.5769940000
Si    18.5003940000    6.3377370000    1.1935010000
S     21.2052920000    4.6092680000   -0.7099280000
Si    18.8025590000    2.7735190000   -2.7176810000
P     16.1664580000    4.5200380000   -0.7960200000
S     20.8838260000    1.0975530000   -5.1678050000
S     20.7659390000   -2.2652740000   -5.1071860000
Si    17.9670470000   -0.5939510000   -6.6280610000
C     16.3871440000    1.0789870000   -4.2157860000
Si    17.7707710000   -4.0842350000   -6.4996580000
P     14.8271400000   -2.3582710000   -7.3998000000
Si     6.8782590000    6.4411510000   16.2634970000
P      4.3870920000    4.6323170000   14.4846750000
S      5.5940500000    4.7414230000   19.3427160000
Si     3.0759720000    2.9147370000   17.4403460000
S      1.2307550000    1.2556080000   20.0888520000
S      1.2504890000   -2.1352100000   19.9543430000
O      6.7483020000    0.0644550000   -4.5933740000
Si    19.7974100000    6.2677310000   -0.7719800000
Si    19.5456170000    2.7731190000   -4.9417240000
Si    17.4566930000    4.4270850000   -2.6097530000
Si    18.1985890000   -0.6326860000   -8.9531190000
Si    16.6712680000    1.0554880000   -6.2424580000
S     15.2985360000    2.4337740000   -3.8743540000
Si    18.1296820000   -4.0159380000   -8.8366570000
Si    15.1049570000   -2.3459210000   -9.5730220000
S     14.1224150000   -0.3232200000   -7.3014900000
Si     5.2501340000    6.3960210000   17.9667220000
S     20.6174370000    8.0112890000    3.6850680000
Si     2.8618520000    4.5591540000   16.0871560000
Si     1.1395770000    2.9407590000   18.7378340000
O      5.0213130000    4.8089040000   -6.7919400000
O      4.9669730000    2.4383640000   -6.6810840000
O      3.8782510000   -2.2910740000    5.4787260000
Si    -6.5945720000   -4.4940530000  -19.1681360000
C      3.9792660000   -1.1128040000    3.3790150000
Si    18.5720560000    6.2786420000   -2.7822190000
S     20.7834270000    4.5200530000   -5.2309940000
Si    18.0093500000    2.6772550000   -6.7074670000
P     15.9967710000    4.4342380000   -4.2344590000
S     19.4601050000    1.0107940000   -9.5782900000
S     19.3726660000   -2.3484740000   -9.4371080000
Si    16.2927270000   -0.6957350000  -10.3062570000
C     15.2500250000    1.0013270000   -7.7152150000
Si    16.1483300000   -4.1704860000  -10.1204830000
P     13.0092020000   -2.4155760000  -10.3010500000
Si     3.0104990000    6.4109760000   17.2258600000
S      9.5554620000    7.9099840000   13.1000900000
S      1.1770760000    4.7037070000   19.9907550000
C      6.1182320000   -1.1455200000   -4.1334940000
O      7.7330760000   -2.3395390000   -1.6404770000
C      4.9158930000   -2.3977600000   -2.5466230000
H      6.7848010000    6.9591540000   -4.6907760000
O      7.3893780000    2.5387130000    1.0289140000
Si    19.4023810000    6.1839370000   -4.9926010000
Si    18.2225140000    2.6914640000   -9.0381840000
Si    16.7236780000    4.3193770000   -6.3255960000
Si    16.0621890000   -0.7206510000  -12.6105330000
Si    15.1167140000    0.9746760000   -9.6894440000
S     14.1526260000    2.3598060000   -7.4201200000
Si    16.0092900000   -4.1021340000  -12.4756350000
Si    12.9015130000   -2.4121860000  -12.5134100000
S     12.2804030000   -0.4040040000   -9.8218240000
Si     1.0778990000    6.3593290000   18.5774760000
O      4.1474210000   -2.4093160000   -1.3486260000
C      6.0790060000   -3.5969950000   -0.4131550000
C      6.7273750000   -3.5758600000    0.9353190000
O     -0.6904930000   -4.8746640000    2.7568900000
Si    17.7777790000    6.1850340000   -6.7059770000
S     16.1538650000    7.8572430000    4.5585410000
S     19.3750580000    4.4314330000   -9.5944120000
Si    16.3169290000    2.6225590000  -10.3992830000
P     14.8946190000    4.3768720000   -7.5809080000
S     17.1722880000    0.9229260000  -13.4792320000
S     17.0963990000   -2.4404300000  -13.3363610000
Si    13.9117020000   -0.7653670000  -13.4807600000
C     13.2770770000    0.9537560000  -10.5904040000
Si    13.7989170000   -4.2417700000  -13.2900170000
P     10.7327750000   -2.4862820000  -12.8758480000
O      1.1935840000   -4.7573450000    6.4793820000
O      2.2224720000   -4.8533570000    2.4365740000
C      4.5938370000   -4.8186130000    1.4903300000
C      5.4964730000   -6.0187790000    1.7696460000
C      4.0890710000   -6.0154120000    3.5103880000
Si    18.0961490000    6.1020510000   -9.0432920000
S     13.6330660000    8.1284700000   15.1176320000
Si    16.0784950000    2.6133260000  -12.7057420000
Si    15.1416840000    4.2898030000   -9.7557050000
Si    13.2216690000   -0.7990440000  -15.7073090000
Si    12.9099830000    0.9054680000  -12.5906230000
S     12.2885740000    2.3562630000   -9.8995400000
Si    13.1755760000   -4.1824100000  -15.5684820000
Si    10.1595160000   -2.4646040000  -15.0159560000
S     10.2945540000   -0.4525160000  -12.2627250000
C      7.0897670000    6.1424740000   -1.6982680000
O      6.0224490000    0.1396590000    3.7067180000
C      6.2134490000    6.0986250000   -4.2835370000
O      7.4770430000    4.9247890000    1.0473250000
C      6.6179750000    1.3194450000    0.8534840000
Si    16.1290640000    6.1280230000  -10.3508710000
S     17.0873310000    4.3492390000  -13.5005480000
Si    13.9303120000    2.5355910000  -13.5846770000
P     13.0397020000    4.3263580000  -10.4911630000
S     14.1577010000    0.8328080000  -16.7757210000
S     14.0835110000   -2.5244920000  -16.6224020000
Si    10.9440280000   -0.8335160000  -16.1799190000
C     11.0302370000    0.8717040000  -13.2520820000
Si    10.8448400000   -4.3203990000  -15.9222890000
P      7.9639760000   -2.5570490000  -14.9418740000
C      4.4459920000    1.2663910000   -6.0606060000
S     16.7628220000    8.1179450000   11.8744580000
C      5.9740460000    1.3376050000   -0.4736310000
C      6.9195780000    3.7181420000   -1.6797650000
Si    15.9581560000    6.0255650000  -12.6971110000
Si    13.2294740000    2.5232820000  -15.8133940000
Si    12.9319550000    4.2082090000  -12.7077400000
Si     9.7475480000   -0.8868070000  -18.1931420000
Si    10.1535980000    0.8372790000  -15.1130090000
S     10.3338250000    2.2529820000  -12.3368280000
Si     9.7337800000   -4.2721610000  -18.0122280000
Si     6.8854950000   -2.5618610000  -16.8419650000
S      7.5154790000   -0.4978860000  -14.5224430000
H      5.0233150000    6.9608230000   -6.7857300000
C      4.5639170000    6.0854810000   -6.2880650000
C      4.4613310000    3.6575290000   -6.1285670000
Si   -14.0511370000   -0.6715070000   12.3196510000
C      4.6728450000    1.2860250000   -4.6005590000
Si   -13.4154330000   -2.3407440000    9.2350980000
Si   -13.9182410000   -4.0582650000   12.2640100000
Si    13.7601050000    6.0420620000  -13.5411080000
S     19.1484270000    8.0730970000    7.9811840000
S     14.0677850000    4.2511520000  -16.8010930000
Si    10.9521870000    2.4450650000  -16.3023150000
P     10.7714400000    4.2302370000  -13.1017590000
S     10.4080920000    0.7412290000  -19.4592610000
S     10.3888900000   -2.6242130000  -19.2565360000
Si     7.4072070000   -0.9328290000  -18.1637330000
C      8.1713110000    0.8004110000  -15.5286940000
Si     7.3759650000   -4.4130690000  -17.8561810000
Si   -15.2348080000   -2.4388230000    5.9838800000
S     12.3475630000    7.9256430000   10.7478030000
Si   -11.9149590000    2.6699540000   13.0448420000
C      5.8057150000   -1.1501820000   -2.6544140000
C    -11.7264310000    0.9903600000   10.2186570000
C      6.9097900000   -1.1494420000   -1.6202900000
C      5.8053060000    3.7827680000   -2.7164220000
S    -15.1082440000    0.9671770000   13.2613210000
Si   -14.5593600000   -0.7042780000   10.0344550000
S    -14.9606370000   -2.3982150000   13.1856420000
P    -13.3038680000   -2.4431200000    7.0277610000
Si   -14.3129280000   -4.1945500000    9.9341940000
Si    10.7921440000    5.9530120000  -16.2042700000
Si    13.1143640000    5.9336840000  -15.8072090000
S     14.5952580000    7.8950940000    7.8691390000
Si     9.7409840000    2.4431590000  -18.3125230000
N    -11.1028440000   -6.6844870000  -12.1357960000
Si   -12.9085360000   -6.3360860000  -11.3427600000
Si   -10.3629130000   -6.3556140000  -13.9695230000
H     16.7843460000  -13.4994180000    9.3579000000
Si   -14.8271920000   -6.3085990000   -8.2311200000
H    -14.6080110000  -14.2080150000  -12.6037380000
H    -16.7961110000  -14.1689210000   -9.0804240000
H    -11.7137490000  -14.2314360000  -15.5732380000
N    -15.5203800000   -6.5773590000   -2.8714280000
N    -13.2359700000   -6.6626790000   -9.3924660000
N     -8.4265290000   -6.6947830000  -14.3507230000
Si    -7.3106540000   -6.3579190000  -15.9791010000
O      0.0575370000  -12.4164860000   -4.6094410000
C     -0.2668010000  -11.2398470000   -7.4578850000
C      3.1163910000  -11.1606610000   -5.9305140000
C      5.9893980000    6.2314430000   -2.7622770000
Si   -16.0367530000   -6.2631950000   -4.7825160000
C     -5.9427070000  -11.2005890000   -2.6992140000
Si   -15.0042680000   -6.0804890000    5.9673310000
O     -0.2893480000  -17.4082110000   -8.1797290000
H     -0.2730630000  -14.1761900000  -19.9410630000
C      4.1541540000  -11.0436550000    3.5931060000
H     11.4738970000  -13.9635310000  -16.4865820000
Si   -13.1672990000   -6.0058170000    9.1279450000
O     -3.3259390000  -12.4037090000   -0.3979340000
C     -3.3193490000  -17.4814080000    2.2273750000
C     -4.2890120000   -4.9197440000    0.3825780000
C      2.5674150000  -12.5710100000   -7.9887760000
Si   -10.6940850000   -5.9449750000   11.8214050000
N      4.9122110000   -6.5729880000  -16.3279070000
C     -3.8902520000  -12.4625030000   -2.8856310000
C     -5.3948470000  -11.1391590000    2.3784070000
O      2.3127210000  -14.9010710000    2.5407490000
H     19.5192690000  -13.5770530000    1.5785570000
H     18.7382990000  -13.7098040000   -6.6305580000
H      7.3391340000  -13.4977270000   17.1556110000
C      5.3901890000   -1.1121330000    1.6840470000
O      7.4428450000   -2.3105800000    1.0965520000
C      6.8479680000  -16.0666020000    1.0887900000
C      3.5040260000  -17.4010930000    3.0968770000
C      3.6841480000  -16.0536270000    5.0387950000
H     -8.2482490000  -14.2345870000  -17.8511880000
H     -4.3734320000  -14.2154470000  -19.3306860000
H     14.5909550000  -13.8784190000  -13.7554430000
H     -8.7276730000  -13.6811980000   16.0390810000
C      5.4528120000   -3.5676160000    1.7298140000
H    -14.9348250000  -13.8228510000   10.6093740000
C      5.5282360000   -3.5233590000    3.2365260000
H     19.5738000000  -13.6383050000   -2.5693630000
C      5.3394740000  -17.4207050000   -0.1405890000
O      7.8154030000  -14.8915730000   -1.5766540000
C      5.7071240000  -18.5720560000    1.9622420000
C      2.1531930000  -17.4068050000    3.8359700000
H    -12.1256820000  -13.7504650000   13.6610570000
H     17.0510610000  -13.7925910000  -10.4172240000
C      2.2219820000  -16.1127890000    4.6877280000
H     -4.8991680000  -13.6178390000   17.6325980000
C      3.0643810000   -6.1254920000   -5.9767060000
H      3.3259210000  -13.5262290000   18.2048590000
H      7.8410770000  -14.0470370000  -18.4841670000
O     -6.1509830000   -4.8790460000    2.6740350000
C      5.1047290000  -14.9205430000   -2.0417610000
C      4.2808660000  -18.5664090000    3.7417770000
C      0.2550170000  -14.9008380000    4.0080760000
O      1.2899610000  -14.8641910000    6.5568190000
H     -0.8179310000  -13.5663380000   18.3659480000
O     -6.8344750000  -15.0208250000    0.0132860000
Si     2.7659070000   -9.8691250000  -13.9057350000
C      7.0680020000  -16.1235390000   -1.4794710000
C      1.2210390000  -16.0998770000    5.8092340000
C      5.9438260000  -16.1572740000   -2.4762850000
O     -0.5605810000  -14.9285670000    2.8459750000
Si     5.0949200000   -9.3697060000  -16.7765650000
C      4.0413540000  -14.9528530000   -3.9921970000
Si   -15.3322310000   -9.2549500000    4.2132930000
C      0.0060050000  -16.1333350000    4.9239630000
C      6.9955330000  -18.5056810000    1.1513440000
O     -1.5763490000  -14.9027280000    6.3012850000
C     -5.8336070000  -16.2360260000   -2.6232780000
C      3.7685810000  -18.4936480000    5.1754500000
C     -1.8759880000  -14.9299220000    3.3802990000
N     12.6732080000   -9.8716130000   -0.6478490000
N      0.9516670000   -9.8234950000   11.4093610000
Si    -8.0963500000   -7.7405350000  -17.5188880000
C      2.2852120000  -18.5743720000    4.8340000000
C      6.3412280000  -18.5906220000   -0.2226110000
O      4.3462830000  -17.4982350000   -1.1640770000
Si    11.3368950000   -9.2335360000  -13.3300880000
O      7.9300440000  -17.2509130000   -1.5603820000
O     -1.3155030000  -15.0141440000   -4.0961510000
C      6.2954140000  -16.1294380000   -3.9382040000
C     -1.3480960000  -16.0991360000    5.5772200000
C     -0.0861540000  -17.4274060000    4.0753470000
Si   -13.5718440000   -9.6337750000  -11.8314790000
C      4.8767220000  -16.1898720000   -4.4315550000
Si     3.0736700000   -9.0054520000   16.7643530000
O     -5.2972480000  -17.4261220000   -5.4317390000
C     -4.7208080000  -18.6435010000   -4.9648750000
Si   -16.6012170000   -7.4223790000    6.7060060000
C     -4.6409120000  -16.2790000000   -4.9082030000
C     -5.9344320000  -18.6777500000   -2.6326870000
C     -3.2160160000  -18.7429640000   -5.2187470000
C     -2.7061430000  -18.6901660000   -6.6541200000
O     -5.2479000000  -15.0643640000   -5.4003440000
C     -4.5513940000  -16.2727050000   -3.4079220000
Si     6.8688230000   -6.1986240000  -16.5242360000
O     -3.0490200000  -15.0690720000   -7.2522580000
O     -6.6404490000  -17.4244190000   -2.8497070000
N      8.1165770000   -6.5081160000  -14.9859670000
O      6.9573200000  -14.9376480000   -4.3193040000
O     -2.4822600000  -17.5903650000   -3.1708120000
H    -18.2918070000  -13.9759390000    3.0757860000
H    -18.6828450000  -14.0468740000   -1.0523430000
Si    10.0680900000   -6.1247220000  -14.7509410000
C     -2.7136310000  -15.0246920000   -4.3357880000
C     -6.1658460000  -18.6038250000   -0.0146630000
C     -5.2808820000  -18.7192970000   -1.2565660000
O      0.9408200000  -17.4825730000    3.0858020000
O     -3.3098590000  -17.5653640000   -0.3372650000
H    -17.0219130000  -13.9003350000    7.0262890000
O      3.5247780000  -17.4717920000    1.6715990000
O      7.6780520000  -17.2343100000    1.3386020000
C     -3.8704740000  -17.5444440000   -2.8412950000
C     -0.1986070000  -18.6269490000   -7.4450500000
O      4.1041420000  -17.2212710000    5.7977550000
O     -3.1265160000  -15.0066130000   -1.8404010000
N    -11.3841730000   -6.3324430000    9.9804390000
O     -6.8994990000  -17.3830370000    0.0498950000
C     -0.2085310000  -16.2619290000   -7.3423250000
C     -2.6676740000  -16.2479050000   -6.5666570000
N     -5.7299230000   -6.2143040000   13.9445850000
C      1.6603950000   -4.8283120000    3.7493890000
Si    16.4618760000   -5.9059590000   -6.0472780000
N     15.0493250000   -6.3026440000   -7.4128580000
N     -2.4011070000   -6.1624050000   14.9310690000
Si    17.1969870000   -5.8483860000   -2.4644990000
N     16.4377870000   -6.1846590000   -0.6430300000
N      1.0606500000   -6.1241700000   15.1739900000
Si    17.1483130000   -5.7937090000    1.1884820000
Si     6.4422080000   -5.7110540000   14.9197700000
Si    16.3229090000   -5.7445160000    4.7480340000
C      2.4213250000  -18.6463010000   -7.2110920000
N     14.8754850000   -6.0997490000    6.0847410000
N     -8.7709900000   -6.2736880000   12.2682860000
N     10.6324970000   -6.0713740000   11.5254560000
Si    12.8110520000   -6.0572360000  -12.3336700000
Si    14.7519210000   -5.7189070000    8.0486410000
Si    11.8786880000   -9.6667170000   -7.5030570000
Si    -5.9144690000   -9.5904060000   10.7765330000
Si     8.0237960000   -9.7744050000  -11.7080620000
N     13.0497590000   -6.0812800000    9.0364570000
C    -14.1268760000   -7.7557820000    3.7974620000
Si    -8.2647000000   -9.6419620000    9.1330840000
Si    10.1778460000   -9.7199100000   -9.8118800000
C    -10.8163780000   -7.6310910000    9.4882530000
P      8.5155340000   -7.7481220000  -12.4852450000
P     -6.3683850000   -7.5485050000   11.5437620000
P     10.8166890000   -7.6900630000  -10.4591660000
C     -8.3257450000   -7.5742760000   11.6686720000
P     -8.8772150000   -7.6018600000    9.7848920000
C     -5.4268320000   -7.5179550000   13.2665100000
P     12.6326090000   -7.6307500000   -7.9882990000
C     14.3754770000   -7.6018790000   -7.0855000000
P     14.4540280000   -7.4744970000    0.8807140000
H     14.2298720000  -13.4847280000   12.6255710000
N    -15.5610210000   -6.5229040000    0.6043830000
H      5.4894620000    7.2260040000   -2.6367940000
H     18.5757050000  -13.5289700000    5.6164530000
H     11.0305260000  -13.4835400000   15.2670150000
O      0.1028090000  -17.5794800000   -4.5902710000
N    -14.7313550000   -6.6280370000   -6.2556230000
N     -5.3361970000   -6.6863990000  -15.9367230000
Si    -3.8982010000   -6.3389910000  -17.2870510000
N      1.4946010000   -6.6232200000  -16.9491030000
Si   -16.1234150000   -6.1465260000    2.4888790000
Si    -0.2804250000   -6.3048830000  -17.8227830000
C      4.3154610000   -7.4023090000   13.9543040000
P     -0.5321970000   -7.4578200000   13.2691010000
C     -3.1572510000  -16.2783060000   -5.1448960000
C      5.0931610000  -17.4492110000   -2.3803690000
C     -4.3025350000  -17.5317550000   -1.3625650000
H      3.8642410000  -14.1197110000  -19.6540090000
C      6.1875460000  -16.1291700000   -0.2617820000
C     -1.1110810000  -17.5445480000   -5.3392470000
N    -13.4441940000   -6.3979180000    7.1819770000
O     -6.5823170000  -15.0565920000   -2.8532010000
N     -1.9765880000   -6.6611220000  -16.8187140000
N     10.9564940000   -6.4419820000  -12.9821390000
C     -5.3763070000  -18.6157620000    2.4932280000
O      3.7970310000  -14.9456590000   -2.5934470000
C     -1.2215980000  -18.7353390000   -6.3130130000
C     -3.6624310000  -15.0209020000   -3.1540200000
C      1.0453800000  -18.7156310000   -6.5595170000
C     -3.7620160000   -6.0813560000    4.2951890000
Si    12.5059300000   -5.7044710000   10.9263390000
N     13.3029320000   -6.3738670000  -10.4179110000
P    -13.4298300000   -7.7695590000    1.9634040000
Si   -10.2020140000   -9.6924760000    7.0224140000
Si    -3.2703580000   -9.5456800000   11.8827990000
N      7.7354630000   -6.0748830000   13.4342610000
C    -12.7792000000   -7.6932960000    6.8224780000
C      4.5695350000   -6.1098730000   -6.0633380000
C     -1.8488710000   -7.9396090000  -16.0440810000
Si   -16.4748270000   -6.2020150000   -1.1507200000
P     10.5612860000   -7.3982830000    9.0387610000
C    -14.7966090000   -7.8119620000    0.5538520000
C     15.3871920000   -7.5410890000   -3.9320450000
C    -14.7571000000   -7.8634300000   -2.7571090000
P    -12.4906640000   -7.7151320000    4.8807460000
Si     3.3651790000   -6.2601390000  -17.5614760000
C     12.4692790000   -7.3902900000    8.5880540000
N     16.1110280000   -6.2384510000   -4.1025190000
Si    -4.3335010000   -5.8197970000   15.3267220000
Si    -0.7378400000   -5.7740110000   15.9794150000
C     -5.0499400000   -7.9636840000  -15.2049000000
P    -12.3417350000   -7.8984990000   -7.0221200000
C     15.3010570000   -7.4436680000    2.6521000000
H    -18.1757910000  -14.1139680000   -5.1692340000
P      5.8359240000   -7.8035550000  -13.9676190000
P      5.4842860000   -7.4045320000   12.3804870000
C    -10.5450900000   -7.9629580000  -11.5833720000
C     12.7114140000   -7.6688840000   -9.9497080000
C     -7.9948900000   -7.9718090000  -13.6936370000
P     -0.1546250000   -7.8910160000  -15.0551400000
N    -14.8571330000   -6.4637940000    4.0075680000
C     10.1655570000   -7.3810390000   10.9602570000
P     14.4942720000   -7.5202920000   -2.1841110000
P     -3.5429320000   -7.4990550000   12.7243500000
Si    13.5110600000   -9.3330210000  -12.8865160000
C      4.7145660000   -7.8561270000  -15.5781400000
P    -13.7238940000   -7.8181370000   -1.0880800000
C    -12.5787960000   -7.9429540000   -8.9711990000
C      7.4045960000   -7.3842630000   12.7776830000
Si    -8.6787280000   -9.4969060000  -14.7319310000
C     14.2096300000   -7.4089310000    5.7754540000
Si    13.6212960000   -9.5647790000   -2.0694970000
P     -6.0421540000   -7.9343990000  -13.5124750000
C     15.6995990000   -7.4895870000   -0.6349940000
Si    -0.4508200000   -9.5054820000   12.3880330000
P     13.7604940000   -7.4368190000    3.8648390000
C      1.0442050000   -7.4312940000   14.4368410000
P    -13.3554720000   -7.8633500000   -4.1292020000
P    -10.9497580000   -7.6563260000    7.5301450000
C     -2.2549650000   -7.4684260000   14.2052170000
P     -3.1827310000   -7.9178890000  -14.6062100000
P      2.8987630000   -7.8529650000  -14.8379170000
P     12.4433320000   -7.4113610000    6.6261810000
C      1.4578220000   -7.9039360000  -16.1699720000
C     10.4742880000   -7.7334500000  -12.3928560000
P    -10.7322210000   -7.9221780000   -9.6294170000
C      7.7683050000   -7.7958740000  -14.3004970000
P      2.5254740000   -7.4275820000   13.1519790000
P     13.8783560000   -7.5707100000   -5.1869670000
P      8.2057670000   -7.3949730000   10.9875810000
Si    13.0409600000   -9.6106240000   -4.8794150000
P     -8.5994490000   -7.9335020000  -11.8271220000
C    -14.0044140000   -7.9102220000   -5.9818720000
Si    -7.7030890000   -5.8822210000   13.9168980000
Si    14.9758940000   -5.9835750000   -9.3892820000
Si     9.6942880000   -5.6990330000   13.2553540000
N     16.0202330000   -6.1362100000    2.8057190000
N      4.4928880000   -6.0937100000   14.6676290000
Si     2.9094180000   -5.7385750000   15.8381940000
Si     3.1810880000   -7.0563370000   17.5957820000
Si    18.9135130000   -7.1077050000    1.4211420000
Si    -0.8476670000   -7.0945470000   17.7521950000
Si    18.9678740000   -7.1669000000   -2.6121300000
Si    18.1555090000   -7.2338700000   -6.5653970000
Si    -4.8172610000   -7.1442790000   17.0332520000
Si    16.5167730000   -7.3156830000  -10.2537360000
Si    -8.5377170000   -7.2088900000   15.4790620000
Si    14.1262510000   -7.3980720000  -13.5038220000
Si   -11.8415980000   -7.2764690000   13.1656480000
Si    11.0973690000   -7.4776180000  -16.1691370000
Si   -14.5716320000   -7.3451160000   10.1932810000
Si     7.5652430000   -7.5598490000  -18.1242720000
Si     3.6944020000   -7.6302980000  -19.2683370000
Si   -17.8369890000   -7.4951610000    2.8655170000
Si    -0.3316200000   -7.6828170000  -19.5547530000
Si   -18.2225370000   -7.5609030000   -1.1514880000
Si    -4.3267420000   -7.7208790000  -18.9624680000
Si   -17.7380600000   -7.6271250000   -5.1595610000
Si     3.5638640000   -9.5518520000  -18.3763120000
Si   -16.4006120000   -7.6797220000   -8.9674880000
Si   -11.4681980000   -7.7371790000  -15.2994820000
Si     7.0827500000   -7.0276970000   16.5799790000
Si   -14.2800860000   -7.7145280000  -12.4009820000
Si    17.9998540000   -7.0586520000    5.3493140000
Si    13.7810990000   -7.0176350000   12.1706530000
Si    16.2637150000   -7.0313430000    8.9919580000
Si     5.5164000000   -9.8243410000  -13.0916920000
Si   -11.6472230000   -9.7472350000    4.5442640000
Si   -12.5250620000   -9.7973160000    1.8176030000
Si    -0.0899130000   -9.9048470000  -14.1083970000
Si   -12.7980120000   -9.8420150000   -1.0387500000
Si    -2.9260270000   -9.9287130000  -13.6855090000
Si   -12.4549300000   -9.8833350000   -3.8830110000
Si    -5.6036810000   -9.9451930000  -12.6660260000
Si   -11.5028810000   -9.9133840000   -6.5900740000
Si    -7.9968020000   -9.9439330000  -11.0850720000
Si    -9.9978310000   -9.9361180000   -9.0306190000
N    -11.7347830000  -10.1263380000    0.3078010000
N    -11.1941960000  -10.0843330000    2.9004440000
N    -10.1209770000  -10.0356930000    5.3193020000
N     -8.5422050000   -9.9881410000    7.4533570000
N     -6.5568230000   -9.9401860000    9.1961550000
N     -4.2279200000   -9.8956200000   10.4766750000
N     -1.6961920000   -9.8560460000   11.2223410000
N      3.5605930000   -9.8007320000   11.0193680000
N      6.0356730000   -9.7856520000   10.0784820000
N      8.2387790000   -9.7838800000    8.6241470000
N     10.0846800000   -9.7901070000    6.7328930000
N     11.4745720000   -9.8088110000    4.4801850000
N     12.3539850000   -9.8351460000    1.9896330000
N     12.4257820000   -9.9125290000   -3.2784830000
N     11.6131910000   -9.9589900000   -5.8129110000
N     10.2840650000  -10.0083990000   -8.0975280000
N      8.4904270000  -10.0563630000  -10.0593130000
N      6.3241750000  -10.1038100000  -11.5757410000
N      3.8822520000  -10.1453890000  -12.6027310000
N     -8.3300730000  -10.2327690000   -9.4000860000
Si     2.4122550000   -9.4776240000   12.2809430000
N      1.2752960000  -10.1825020000  -13.0692000000
N     -3.9316840000  -10.2283300000  -12.2972890000
N     -1.3645490000  -10.2090640000  -12.9725150000
N     -6.2815330000  -10.2357400000  -11.0956200000
N     -9.9530870000  -10.2201520000   -7.3177300000
N    -11.1009290000  -10.1966360000   -4.9195960000
N    -11.6966050000  -10.1658950000   -2.3446390000
Si    13.5799060000   -9.5210100000    0.7969080000
Si     5.1796700000   -9.4556530000   11.5549830000
Si    12.9305700000   -9.4872330000    3.5900360000
Si     7.7290640000   -9.4472880000   10.2515970000
Si    11.6951700000   -9.4625720000    6.1711650000
Si     9.9331150000   -9.4498720000    8.4296530000
Si    18.1283100000   -9.1126400000   -2.5035140000
Si    -0.7685390000   -9.0424550000   16.9126540000
Si    -2.4663870000   -8.9480030000   15.4841330000
Si    17.3543440000   -9.1777820000   -6.2719630000
Si    -4.5528580000   -9.0907960000   16.2291790000
Si    15.5635880000   -9.0894740000   -7.5831770000
Si    -5.9037640000   -9.0000860000   14.4690630000
Si    15.7908650000   -9.2543780000   -9.7870390000
Si    -8.1014580000   -9.1520210000   14.7479750000
Si    13.7614010000   -9.1621300000  -10.6853940000
Si    -9.0454260000   -9.0597850000   12.7392660000
Si   -11.2518870000   -9.2164570000   12.5409350000
Si   -11.7439080000   -9.1214810000   10.3770280000
Si    10.6222000000   -9.4090700000  -15.4261110000
Si   -13.8557230000   -9.2836240000    9.7087820000
Si    18.0775490000   -9.0563140000    1.3432880000
Si     8.4041280000   -9.3035700000  -15.3938440000
Si   -13.8713630000   -9.1877210000    7.4898260000
Si     7.2539420000   -9.4853440000  -17.2860200000
Si   -15.7906990000   -9.3565550000    6.3843520000
Si   -16.9693340000   -9.4260930000    2.7212440000
Si     1.5653860000   -9.4233210000  -17.4158690000
Si   -16.0563350000   -9.3166500000    0.6993420000
Si    -0.2746550000   -9.6020220000  -18.6474410000
Si   -17.3361180000   -9.4896160000   -1.1082220000
Si    -2.0178160000   -9.4630440000  -17.2777440000
Si   -16.0114770000   -9.3741550000   -2.8871790000
Si    -4.0811510000   -9.6380300000  -18.0824560000
Si   -16.8712140000   -9.5508240000   -4.9282130000
Si   -15.1949980000   -9.4254860000   -6.3803810000
Si    -7.6756800000   -9.6567440000  -16.7076870000
Si   -15.5958150000   -9.6006230000   -8.5588870000
Si   -13.6482940000   -9.4629330000   -9.6179160000
Si   -10.8900980000   -9.6541420000  -14.5916540000
Si   -11.4426450000   -9.4867050000  -12.4461370000
Si     1.1088080000   -8.9078890000   15.7347170000
Si    16.9988110000   -8.9669600000   -0.5965720000
Si     4.6542670000   -8.8773030000   15.2107700000
Si    16.5655940000   -8.9182200000    2.9640730000
Si     6.7943400000   -8.9781230000   15.7936350000
Si    10.6744570000   -7.0142880000   14.7418710000
Si    17.2054390000   -9.0098270000    5.0886850000
Si     8.0022700000   -8.8582430000   13.9344040000
Si    15.3807990000   -8.8825330000    6.3472690000
Si    10.2173750000   -8.9653010000   14.0417790000
Si    13.1810380000   -8.9682180000   11.5908890000
Si    10.9956660000   -8.8540520000   11.9653460000
Si    15.5479090000   -8.9819880000    8.5596670000
Si    13.4938790000   -8.8627070000    9.3948960000
Si    -5.4868780000   -9.4888710000  -16.3689010000
Si    16.6596600000   -9.0233670000   -4.1677770000
C     -6.0610380000  -16.2396130000   -0.0548140000
O      9.6738120000  -11.3078180000   -6.1825640000
O     -2.2551480000  -11.4889180000  -11.1982470000
O      6.5733100000  -11.3843860000   -9.5751810000
O     -6.3624760000  -11.5024680000   -9.1045690000
O      8.3243420000  -11.3366230000   -8.0785000000
O      4.5425970000  -11.4163970000  -10.7097420000
O      0.0229110000  -11.4795040000  -11.5080740000
O      2.3408260000  -11.4479800000  -11.3596750000
C      2.3606510000  -16.2044530000   -7.1155660000
C     -0.7692780000  -15.0166050000   -5.4058490000
O     -0.3043160000  -15.0449360000   -8.1160610000
C     -3.6898530000  -18.5284110000    4.5083750000
C      2.6032260000  -17.5051310000   -5.1488710000
C     -1.3599320000  -18.5390060000    5.7268170000
O      2.9293140000  -17.5418070000   -3.7593950000
O     -1.5768020000  -17.2710520000    6.4075070000
O     -2.8159150000  -14.9705100000    1.0315900000
C      7.2224100000  -18.4848430000   -1.4676300000
C     -3.8678280000  -16.1954220000    2.8978020000
C      6.0924950000  -18.6189270000   -2.4894430000
C     -2.1318290000  -16.1623470000    4.2945500000
C     -3.0579780000  -14.9519620000    2.4296900000
C      2.8634440000  -14.9747020000   -4.9452450000
O     -4.1238510000  -14.9383110000    4.9648960000
C      1.7317050000   -9.7922250000    3.8521770000
C      1.2502590000   -9.6839870000    6.6365130000
C      0.1919310000   -9.8050130000    4.0161260000
C      4.6725370000   -9.7872500000    1.5689480000
S      8.0704580000   -9.4977990000    3.1308450000
C     -3.7846040000   -9.9234000000   -3.2452260000
C     -1.9642570000   -9.8334440000    3.3847620000
C      5.1572260000   -9.8011290000   -6.7052280000
O     -0.6379360000   -9.8344000000    2.8533510000
C      5.2980570000   -9.8043000000   -0.5886940000
S     -3.5323330000   -9.5678290000    6.7777310000
O      1.5234100000   -9.8918070000   -4.5408840000
S     -6.1492380000   -9.6252770000    4.6835580000
S     -7.7696070000   -9.6809090000    1.7386730000
C      7.6592220000   -9.6831310000    1.2665810000
O      4.1380470000   -9.8140550000    0.2443520000
C      7.9143480000   -9.7177800000   -1.6549950000
S      8.6369460000   -9.5669930000   -3.4202710000
S      4.4223150000   -9.6721410000   -8.4734330000
C      6.3081770000   -9.6663050000    3.8756380000
S      7.0352640000   -9.6198020000   -6.3602130000
C      5.1296260000   -9.8220080000   -2.1284160000
C     -4.2535100000   -9.8884530000    0.4482750000
C      5.0019890000  -18.6525920000   -4.4858900000
C      6.4344500000  -18.5688210000   -3.9736740000
C     -2.1653830000  -18.6242460000    4.4357090000
O     -1.8921130000  -17.5217720000    2.2526670000
O      5.1929640000  -17.3356680000   -6.5698900000
C      4.0533850000   -9.8547410000   -4.1006890000
C      0.6937200000   -9.9059610000   -5.7032180000
O     -3.2550730000   -9.9093620000   -1.9190140000
C      1.0080710000  -16.2509780000   -6.4595900000
C     -2.8139140000   -9.9268540000   -4.4516950000
S     -0.3221640000   -9.5219990000    7.7181770000
C     -0.3739680000   -9.8699980000   -8.3235440000
C     -4.2690230000   -9.7633090000    5.0210300000
C     -0.8447140000   -9.9192410000   -5.5337450000
C      3.7039030000   -9.7845530000    2.7765430000
S     -2.1462830000   -9.7397390000   -9.0482830000
C     -5.4169930000   -9.8914420000   -5.5542690000
S     -7.1807560000   -9.7435710000   -4.8252040000
S     -8.1294330000   -9.7215850000   -1.6080600000
C      2.8487640000   -9.8775620000   -5.0724010000
C      7.0338920000   -9.7567460000   -4.4498660000
C     -4.4191450000   -9.9062690000   -1.0906190000
C     -3.1724030000   -9.8558480000    2.4166970000
O     -2.9396020000   -9.8748020000    1.0078580000
C     -5.9498750000   -8.6177800000   -2.7212450000
O     -5.3784570000   -7.3866840000   -5.5301470000
C     -3.2571670000   -8.6508420000   -5.2578210000
C     -2.7603350000   -8.6260660000   -6.6807870000
C     -4.7454950000   -8.5868060000   -5.0161260000
O     -6.7227630000   -7.3806560000   -2.9606860000
C     -4.6655630000   -8.6465810000   -3.5098780000
O     -2.5711420000   -7.4156410000   -3.2651040000
C     -3.9620500000   -7.4123850000   -2.9440450000
C     -2.5518300000   -7.4169730000   -4.6920190000
C     -5.2988950000   -8.6304770000   -1.3618450000
O     -3.1522920000   -7.3880630000   -7.3861450000
C     -4.3990460000   -7.3986200000   -1.4726770000
C     -6.1808860000   -8.5525050000   -0.1387950000
O     -6.9901360000   -7.3516600000   -0.0670230000
C      0.9371100000   -8.6240640000   -6.5813910000
C      2.2941910000   -8.5828270000   -7.2367880000
O     -6.1148490000   -7.3159300000    2.7048610000
O     -4.4096050000  -11.5136030000  -10.3380400000
C     -3.9808940000   -8.5713440000    2.8330770000
C     -5.0587110000   -8.6047210000    0.8702650000
O      2.5014790000   -7.3398570000   -8.0089740000
O     -3.4041270000   -7.3884920000   -0.4514920000
S      1.1942880000   -9.7136130000   -9.4186850000
C      0.7354670000  -15.0028990000   -5.5711750000
C      2.4997160000   -7.3719940000   -5.2489430000
O     -1.9933530000   -7.3489660000    2.1136510000
C     -1.6681560000   -9.7157970000    6.3706950000
O     -1.6703560000   -7.2235530000    6.2613110000
C     -3.4207610000   -7.3500940000    2.1014990000
C     -0.0784880000   -8.5082240000    4.8628340000
C     -0.2889070000   -8.5678950000   -7.4604620000
C      4.2494690000   -7.3395790000   -3.8435090000
C     -1.4359610000   -8.4784850000    5.5155430000
C      3.0870880000   -8.5963580000   -5.9536490000
O      0.0070000000   -7.4076920000   -4.6772420000
O      1.2162320000   -7.1883970000    6.5187770000
C     -3.6322770000  -16.1656780000    4.3820640000
C      0.0174530000  -18.5948150000    5.0772150000
S      9.0026740000   -9.5249430000   -0.0924830000
O      1.5501630000  -14.9877060000   -4.4103040000
C     -6.7746830000   -9.8773580000   -2.9555720000
C      3.1446390000  -16.2227080000   -5.8315660000
C      4.3545780000  -17.4718020000   -3.7335870000
C      6.8064220000   -8.4486420000    1.0084800000
O     -4.2461800000   -7.2671580000    4.9300040000
O      2.6126650000  -17.3897840000   -7.9197180000
C      1.1263220000  -17.5247220000   -5.5831030000
O     -1.4045030000   -9.9169230000   -4.2187930000
C      3.2277420000  -18.6866400000   -5.9181610000
C     -0.1923180000   -7.3010290000    3.9308200000
O      6.2128760000   -7.1704560000    3.7913740000
C      4.8355090000   -8.5643990000   -4.5464660000
O      3.4065140000   -7.3069560000    1.5295270000
C      1.2584400000  -18.4622630000    5.9619050000
C      5.2268700000   -7.2915470000   -0.2655690000
S     -5.0812790000   -9.7495250000   -7.4339690000
O      0.8291490000   -7.3183430000    2.9340090000
C      4.7960490000   -7.2805620000    1.2079050000
O     -3.1736150000   -4.9512590000   -7.4114710000
C      5.6055890000   -8.3925640000    3.3061020000
C      6.2563260000   -8.5119540000   -4.0476750000
O      7.8157510000   -7.2222490000   -1.6745580000
O      5.1127430000  -14.9742070000   -6.5258300000
O      2.8232590000   -7.3657530000   -3.8592010000
C     -5.4049910000   -8.5585550000    2.3366710000
C     -1.2052300000   -7.4126620000   -5.4300590000
C     -5.9748900000   -6.1454200000   -2.7499680000
C     -1.6670640000   -7.3197430000    3.5023460000
O      4.2314610000   -7.3221850000   -1.2870030000
C      6.1515960000   -8.5051060000   -0.3489490000
C      5.9093990000   -8.5316870000   -2.5810850000
C     -3.7338210000   -8.4770790000    4.3186510000
C      4.9865990000   -7.3154340000   -2.4973110000
C     -2.7813500000   -6.1533020000   -6.7007010000
C     -3.2797410000   -6.1814680000   -5.2770670000
O      3.8167510000   -9.8461260000   -2.6913500000
C      3.3879070000   -7.2772020000    2.9552520000
C     -4.7678080000   -6.1888850000   -5.0390100000
C      4.5913300000   -8.5078300000   -6.0357800000
C      4.1186990000   -8.4817040000    3.5506800000
C      7.0294640000   -8.4357420000   -1.5745050000
O     -5.3892370000   -4.9461030000   -5.5430040000
O      6.9418470000   -7.2640850000   -4.4444330000
O     -1.4384600000   -4.9578900000   -4.2317290000
C     -1.2936230000   -8.6430240000   -6.3357630000
C      5.5257640000   -8.4871730000    1.8013000000
C     -2.8447480000   -4.9571520000   -4.4710500000
C     -4.6863600000   -6.1792910000   -3.5343480000
C     -2.2283810000   -8.5378160000    4.2347710000
C     -5.3277160000   -6.1591360000   -1.3864870000
O      7.5548050000   -7.1913830000    1.2164410000
C     -4.1595200000   -7.3731910000    0.7575870000
C      1.0263480000   -7.3932810000   -5.6763280000
O      3.9829530000   -7.1697000000    5.6488090000
O     -0.3884900000   -7.3631140000   -8.2630680000
O     -0.4093320000   -4.9218140000   -8.2629760000
C      1.1433720000   -8.4087610000    5.7422640000
C      2.1526390000   -8.4888510000    4.6236170000
O      6.8265100000    4.8729220000   -4.6702170000
C     -0.8788550000   -4.9507800000   -5.5437160000
C      2.0401190000   -7.2824060000    3.6895270000
O      5.0798920000   -7.2998190000   -6.6727820000
C      3.5370990000   -3.5623470000    4.8556820000
C      1.2392390000  -11.4658030000  -12.2957540000
C     -6.1183260000  -11.2464460000    8.6085810000
C     -7.7763870000  -11.5134250000   -8.8563420000
C     -3.9306080000  -11.2044760000    9.8098630000
C     -3.6458530000  -11.5079170000  -11.5723780000
C    -10.9824840000  -11.4193000000    0.2576290000
C      3.3876090000  -11.1153980000   10.3174900000
Si    18.5527640000  -12.4786080000    1.4443130000
Si    15.8835960000  -10.9084080000    2.8244420000
Si    15.8920390000  -14.3709970000   -0.5356010000
Si    13.7059580000  -12.6603330000    0.8529440000
Si     4.4907360000  -10.8678780000   14.5337140000
Si     3.1731880000  -12.4276550000   17.2412340000
Si     2.4585080000  -12.6162460000   12.4123210000
Si     1.1190430000  -14.3155930000   14.6368940000
S     19.6318570000  -10.5813580000    1.5520940000
Si    17.4921570000  -12.7325770000   -0.5368590000
Si    14.9990250000  -11.0278380000    0.9904420000
C     14.7572960000  -14.2892810000   -2.1029110000
Si     2.6351930000  -10.9819000000   13.6978670000
S      3.3163370000  -10.5297330000   18.3147020000
Si     1.1647580000  -12.6724850000   16.2318320000
C     -0.4756900000  -14.2299930000   13.5432790000
Si    18.6043380000  -12.5369180000   -2.4955660000
Si    16.2980430000  -10.9552710000   -0.5789090000
Si    15.5748840000  -14.4241650000   -3.8525960000
Si    13.7441400000  -12.7024740000   -2.0325350000
Si     1.0996750000  -10.8970450000   15.0354550000
Si    -0.7637080000  -12.4661890000   17.3934560000
Si    -0.4236220000  -12.6462180000   12.5233680000
Si    -2.2042410000  -14.3544300000   14.4058400000
S     19.6866340000  -10.6430210000   -2.6280320000
Si    17.1426030000  -12.7913590000   -4.2023520000
Si    15.0429430000  -11.0762690000   -2.1809240000
C     14.1311340000  -14.3422710000   -5.1404510000
S     -0.8605770000  -10.5702400000   18.4758090000
Si    -0.5323010000  -11.0126190000   13.8181500000
Si    -2.5072270000  -12.7146090000   15.9755030000
C     -3.5269840000  -14.2709670000   12.9944080000
Si    17.8101420000  -12.6047650000   -6.3543040000
Si    14.5537860000  -14.4851180000   -7.0239080000
Si    13.1610300000  -12.7511430000   -4.8601280000
Si    -2.3189630000  -10.9363550000   14.7963950000
Si    -4.6410530000  -12.5159200000   16.6955620000
Si    -3.2624230000  -12.6848200000   12.0131290000
Si    -5.4003620000  -14.4027130000   13.4648270000
S     18.8446380000  -10.7148730000   -6.7220990000
Si    16.0159620000  -12.8596080000   -7.7069510000
Si    14.4018080000  -11.1283670000   -5.2881290000
C     12.8675630000  -14.4007800000   -7.9723320000
Si    -3.6520620000  -11.0563430000   13.2583810000
S     -4.9742010000  -10.6220020000   17.7340160000
Si    -6.0386400000  -12.7674880000   14.9356040000
C     -6.3901150000  -14.3200290000   11.8025610000
Si    16.2076870000  -12.6828830000   -9.9527460000
Si    14.9245980000  -11.0723710000   -7.2581310000
Si    12.8772050000  -14.5511220000   -9.9022730000
Si    11.9860820000  -12.8048050000   -7.4973360000
Si    -5.6076630000  -10.9865160000   13.8265810000
Si    -8.2778860000  -12.5768290000   15.1806580000
Si    -5.9256670000  -12.7309720000   10.9024580000
Si    -8.3203970000  -14.4576390000   11.8588840000
S     17.1454500000  -10.7983430000  -10.5404930000
Si    14.1646010000  -12.9341760000  -10.8889900000
Si    13.1139270000  -11.1908850000   -8.1876260000
C     11.0271610000  -14.4614520000  -10.4669030000
Si    -6.5782700000  -11.1050610000   12.0365460000
S     -8.8314930000  -10.6861440000   16.1260700000
Si    -9.2649480000  -12.8278410000   13.1616250000
C     -8.9310810000  -14.3734470000   10.0232250000
Si    13.8713190000  -12.7637040000  -13.1242620000
Si    13.2009060000  -11.1413070000  -10.2235040000
C      5.7126390000  -11.1016140000    9.4375740000
C     -1.5500330000  -11.1674300000   10.5105370000
C      7.7793290000  -11.0997870000    8.0677910000
C    -10.3827620000  -11.4822560000   -4.6517060000
C     11.6480510000  -11.1475520000    1.8392100000
C     10.8178390000  -11.1232190000    4.1779060000
C     11.9447740000  -11.1811740000   -0.6376390000
C      9.5161140000  -11.1057130000    6.2952790000
C      0.9362640000  -11.1367840000   10.6873630000
C     -5.8549490000  -11.5153320000  -10.4458440000
C     -7.9828560000  -11.2913870000    6.9677330000
C     -1.2394110000  -11.4902300000  -12.2085800000
C     -9.4682500000  -11.3359130000    4.9661330000
C      3.6859660000  -11.4319510000  -11.8638720000
C    -10.4708790000  -11.3806970000    2.6914450000
C    -10.9405640000  -11.4550380000   -2.2319790000
C     -9.3023700000  -11.5027760000   -6.8997110000
Si    10.6223550000  -14.6168650000  -12.3526290000
Si    -8.6111840000  -11.0435930000   12.1735240000
Si   -11.5055140000  -12.6432150000   12.9207820000
Si    10.2738940000  -12.8599200000   -9.8189850000
Si    11.6743040000  -13.0082830000  -13.5993220000
Si   -10.8287160000  -14.5166090000    9.6646960000
Si    -9.1774180000  -11.1614200000   10.2181750000
Si    -8.2905500000  -12.7811640000    9.2465270000
S    -12.2552860000  -10.7560200000   13.7278680000
S     14.6675760000  -10.8847420000  -13.9067340000
C    -11.0307580000  -14.4298860000    7.7406030000
Si    11.2321500000  -11.2514730000  -10.7409300000
C      8.6953540000  -14.5209340000  -12.5073060000
Si     7.8963420000  -14.6815110000  -14.2626050000
Si     8.1040440000  -12.9139170000  -11.7204000000
Si   -14.1732190000  -12.7127380000   10.0208740000
Si   -10.2428000000  -12.8336960000    7.1224490000
Si   -11.1918190000  -11.1037040000    9.9148930000
Si   -12.0359510000  -12.8923880000   10.7365900000
Si   -12.8055000000  -14.5774700000    6.9822930000
S     11.5271620000  -10.9704770000  -16.6631470000
Si     8.8489050000  -11.3137830000  -12.8340450000
C      5.9814000000  -14.5771480000  -13.9985610000
Si   -11.3223580000  -11.2175460000    7.8830310000
Si    10.9099450000  -12.8436840000  -15.7207050000
Si    10.8826760000  -11.2088550000  -12.7496560000
Si     8.0774360000  -11.2754730000  -14.7206010000
Si     8.6614070000  -13.0816630000  -15.7121570000
Si     4.8231590000  -14.7398720000  -15.5392490000
Si   -14.2213230000  -12.9596760000    7.7734890000
S    -15.0850150000  -10.8290080000   10.6506270000
C    -12.5907360000  -14.4871380000    5.0602170000
Si   -13.2261350000  -11.1667900000    7.1552940000
Si     7.4593830000  -12.9216220000  -17.6201480000
Si   -16.1561290000  -12.7864850000    6.6161250000
Si     5.5800660000  -12.9646770000  -13.1087440000
Si   -11.6949660000  -12.8869330000    4.6273640000
Si     6.0733420000  -11.3711170000  -14.3631220000
Si     5.2643720000  -13.1484920000  -17.1271790000
Si   -14.1621280000  -14.6393810000    3.9388570000
Si   -15.7205390000  -13.0289000000    4.4101970000
S    -17.1882890000  -10.9072090000    7.0385670000
Si     3.6808640000  -12.9896130000  -18.7330570000
S      7.8663970000  -11.0549580000  -18.6817850000
Si     1.5482350000  -14.7895500000  -16.1278000000
C    -13.5383960000  -14.5421320000    2.1077830000
Si   -14.6227530000  -11.2313340000    4.0231680000
Si   -17.3621540000  -12.8580780000    2.8643610000
Si     4.9138840000  -11.3367700000  -16.0402280000
Si   -12.5765960000  -12.9374030000    1.8818160000
Si     2.8154420000  -13.0094170000  -13.9227540000
Si   -14.8304600000  -14.6961580000    0.6750220000
S      3.8563220000  -11.1282260000  -19.8650940000
C      3.0108710000  -14.6265440000  -14.8713050000
Si   -12.9197510000  -11.2776800000    5.1423580000
Si   -13.8902810000  -11.3340710000    2.1237300000
Si     1.6424130000  -13.2049310000  -17.7788730000
Si    -0.2491690000  -13.0425210000  -19.0066350000
Si     3.0325930000  -11.4222910000  -15.2606110000
C     -0.0771690000  -14.6657720000  -15.0846870000
Si    -1.7761450000  -14.8256680000  -15.9958560000
Si    -0.0566770000  -13.0451030000  -14.1226690000
C    -13.8293830000  -14.5924550000   -0.9784730000
Si   -16.4615730000  -13.0925760000    0.8032750000
Si   -15.3139550000  -11.2897120000    0.6642300000
S    -18.4684650000  -10.9833270000    3.0580490000
Si     1.5404630000  -11.3880190000  -16.6497090000
Si   -14.7837250000  -14.7491750000   -2.6553810000
S     -0.3150070000  -11.1852230000  -20.1572470000
Si    -2.0347200000  -13.2455690000  -17.6345700000
C     -3.1387890000  -14.6934340000  -14.6292480000
Si   -16.4110170000  -13.1528960000   -2.8778820000
Si   -17.7342850000  -12.9248560000   -1.0581870000
Si    -0.1280090000  -11.4632290000  -15.4824970000
Si   -14.1905750000  -11.3851350000   -1.0341740000
S    -18.8648600000  -11.0547110000   -1.1033310000
C    -13.4492770000  -14.6368100000   -4.0542020000
Si    -4.1456840000  -13.0793450000  -18.4269470000
Si   -12.8485170000  -12.9830860000   -0.9911690000
Si   -15.2693250000  -11.3445310000   -2.7641780000
Si   -17.2542060000  -12.9873570000   -4.9693410000
Si   -12.4969630000  -13.0232060000   -3.8527030000
Si    -4.9950260000  -14.8492650000  -15.1532200000
Si   -14.0194410000  -14.7938720000   -5.8968210000
Si    -1.8850690000  -11.4251130000  -16.5162590000
Si    -2.9066220000  -13.0703140000  -13.6990720000
Si    -5.5947690000  -13.2721060000  -16.7021900000
C     -6.0309950000  -14.7082490000  -13.5249800000
S    -18.3578220000  -11.1225080000   -5.2540460000
Si   -15.5693940000  -13.2047070000   -6.4622300000
C    -12.4173640000  -14.6723220000   -6.9763520000
Si    -7.8264520000  -13.0977590000  -17.0213670000
Si    -3.2632040000  -11.4902710000  -15.0155180000
Si    -5.2009550000  -11.4499590000  -15.6479540000
S     -4.4516360000  -11.2248020000  -19.5427230000
Si   -13.8073980000  -11.4325410000   -4.1812880000
Si    -5.5975320000  -13.0846920000  -12.6718340000
Si   -14.4871140000  -11.3918630000   -6.1036080000
Si   -15.9446360000  -13.0383610000   -8.6856860000
Si    -7.9572120000  -14.8568260000  -13.6367830000
Si   -12.5780250000  -14.8280500000   -8.8986320000
S     -8.3584760000  -11.2440790000  -18.0500190000
Si   -11.5377360000  -13.0546240000   -6.5733990000
Si    -8.8709940000  -13.2797480000  -15.0243870000
S    -16.9702930000  -11.1778200000   -9.1988560000
Si   -13.9776200000  -13.2445480000   -9.7818530000
Si    -6.2247300000  -11.5078140000  -13.8864590000
C     -8.6193380000  -14.7089370000  -11.8249980000
Si   -11.1183050000  -13.0953000000  -14.8563050000
Si   -10.5252380000  -14.8491830000  -11.5191930000
Si   -13.0070820000  -11.4272370000   -9.1968940000
Si   -13.8672530000  -13.0744080000  -12.0337860000
Si   -12.7535620000  -11.4679360000   -7.1735010000
C    -10.7813670000  -14.6966280000   -9.6073160000
Si    -8.2529960000  -11.4576760000  -14.0837190000
Si    -8.0059520000  -13.0858460000  -11.0882570000
Si   -10.8958510000  -11.4489850000  -11.8998180000
N    -11.7751180000  -12.6922290000    0.3523850000
C     -4.9373710000  -16.2276860000    0.9436580000
N    -11.2342690000  -12.6485900000    2.9600270000
O     -8.1506900000  -11.3292940000    5.5342120000
N    -10.1559790000  -12.6010350000    5.3947850000
C     -4.0593880000  -17.5038550000    0.8759280000
N     -8.5702900000  -12.5520490000    7.5392690000
Si   -11.7094260000  -13.2696200000  -12.6811040000
N     -6.5700680000  -12.5045180000    9.2949040000
Si    -8.8723580000  -11.5057990000  -12.1415070000
Si   -10.0175030000  -13.0758840000   -9.0233250000
S    -11.8521200000  -11.2408920000  -15.7509450000
N     -1.6797430000  -12.4200310000   11.3314600000
O     -3.0663140000  -17.4377700000   -7.3013610000
N      6.0958620000  -12.3509830000   10.1797410000
N      8.3134110000  -12.3478480000    8.7159000000
N     -4.2306910000  -12.4594470000   10.5806010000
N     11.5690560000  -12.3724340000    4.5488470000
O     -6.0241140000  -17.3563760000    2.8268570000
N     10.1708060000  -12.3551380000    6.8135750000
O     10.6569300000  -11.2554690000   -4.0847890000
N     11.7058620000  -12.5227990000   -5.8000020000
N     12.5234140000  -12.4760230000   -3.2575800000
Si   -11.0849230000  -11.4951350000   -9.8701930000
S    -14.7680600000  -11.2172340000  -12.7530910000
N      0.9801210000  -12.3880340000   11.5185430000
N      3.6080650000  -12.3646890000   11.1253130000
C     -5.0341340000  -18.6915970000    1.0102600000
O     -9.9321460000  -11.4772070000   -3.2760730000
N     12.7742560000  -12.4347040000   -0.6077430000
C     -4.2874090000  -15.0026920000   -1.0239590000
O    -10.0084630000  -11.4123530000    1.3188910000
N     12.4543550000  -12.3993300000    2.0412750000
N     10.3644050000  -12.5720070000   -8.0990120000
N      6.3811630000  -12.6685120000  -11.5869760000
N      8.5619820000  -12.6215610000  -10.0646810000
N     -8.3376200000  -12.7984130000   -9.3990130000
O     -9.2019280000  -11.4865030000   -5.4640100000
N      3.9273570000  -12.7118000000  -12.6139490000
N     -9.9747850000  -12.7853170000   -7.3047630000
N      1.3097560000  -12.7478290000  -13.0800940000
C     -5.1772820000  -16.2550240000   -1.2705700000
N    -11.1292610000  -12.7624740000   -4.9021010000
O    -10.2373670000  -11.4423450000   -0.9694280000
N    -11.7334440000  -12.7307250000   -2.3115550000
C     -3.9415830000  -18.6581120000    3.0054510000
N     -6.2836900000  -12.8016690000  -11.0952830000
N     -3.9178540000  -12.7937720000  -12.3039290000
C     -2.4609410000  -17.5501890000   -4.5977770000
N     -1.3447850000  -12.7757390000  -12.9806860000
O     -9.2909220000  -11.3757680000    3.5346000000
C     -1.2056000000  -16.2704520000   -6.2175010000
Si    15.9730510000  -11.0094080000   -3.9935650000
Si     4.4138670000  -14.2872650000   14.1489180000
C     10.7662740000  -14.1683410000    9.2545910000
Si    12.6304020000  -14.2728500000    8.7456920000
Si    10.0319690000  -12.5889300000    8.5352650000
Si    10.3082450000  -14.2655380000   11.1329840000
Si    13.8879840000  -12.6252040000    9.7204990000
C     12.6747040000  -14.1818080000    6.8131470000
Si    10.9614050000  -10.9510100000    9.4349180000
Si    11.3206130000  -12.6174480000   12.3587180000
C      8.3773330000  -14.1663330000   11.2271900000
Si    15.9567130000  -12.4034310000    8.8357300000
Si    14.3861970000  -14.2933820000    5.9153160000
Si    12.9442670000  -10.8538140000    8.9729200000
Si    13.5307740000  -12.3887850000   11.9407550000
Si    11.8067680000  -12.6019350000    6.2629780000
Si    10.5550750000  -10.8457620000   11.4300180000
Si    10.4925440000  -12.3871890000   14.4501080000
Si     7.8117870000  -12.5866510000   10.3695400000
Si     7.5250670000  -14.2694400000   12.9614030000
S     16.8796990000  -10.5032380000    9.3948060000
Si    15.8271550000  -12.6468920000    6.5913770000
C     14.0122700000  -14.2070150000    4.0174900000
Si    12.9117290000  -10.9643420000    6.9369700000
Si     8.5199950000  -10.9487090000   11.4523060000
S     14.3061650000  -10.4883230000   12.6901980000
S     11.0829900000  -10.4870920000   15.3535450000
Si     8.2449520000  -12.6218000000   14.3805100000
C      5.6194780000  -14.1765080000   12.6386470000
Si     7.6919220000  -10.8492580000   13.3126390000
Si    17.6571370000  -12.4324940000    5.2810750000
S     18.6824870000  -10.5328400000    5.6222430000
Si    17.0466870000  -12.6827120000    3.1179320000
Si    15.4890610000  -14.3260900000    2.7719710000
Si     6.9851570000  -12.4004310000   16.2447370000
Si    14.2795650000  -10.9910240000    4.0791900000
Si    13.0507030000  -12.6258400000    3.6634260000
Si     5.2458140000  -12.5960090000   11.6826970000
Si    14.7491410000  -10.8742310000    6.0596790000
C     14.7176080000  -14.2437320000    0.9982550000
Si     5.6994700000  -10.9582910000   12.8947700000
S      7.3610600000  -10.5012200000   17.2582010000
Si     4.8060550000  -12.6416090000   15.6922010000
C      2.6216360000  -14.1980900000   13.4225080000
C      5.9762290000  -11.3941920000  -10.8974870000
O     -4.6841150000  -11.2451020000    8.5856190000
C      8.0143650000  -11.3508280000   -9.4786000000
C      9.6964270000  -11.3067920000   -7.6364260000
C     10.9493660000  -11.2617330000   -5.4904620000
O     -6.5531330000  -11.2958700000    7.2261920000
O     -7.9445700000  -11.5126830000   -7.4145270000
C     11.7129690000  -11.2189130000   -3.1112580000
O      8.1259870000  -11.1356730000    6.6640350000
O      9.5450250000  -11.1449300000    4.8601220000
O     10.5303960000  -11.1695050000    2.7564320000
O     11.0874880000  -11.1878040000    0.5197930000
O     11.0789790000  -11.2312440000   -1.8045060000
O      6.3338540000  -11.1354750000    8.1374420000
O      4.2989760000  -11.1376590000    9.2004460000
O      2.0485140000  -11.1615910000    9.7611960000
O     -0.2539440000  -11.1764350000    9.8886790000
O     -2.5273010000  -11.2188630000    9.4372570000
H      7.9851800000  -15.0134510000   10.6285820000
H     16.5635270000  -15.6765200000   -0.5073430000
H      1.1590320000  -15.6199120000   15.3111670000
H     14.0400390000  -15.1309060000   -2.0207830000
H     -0.4156620000  -15.0737630000   12.8257560000
H     16.2330000000  -15.7320980000   -3.9653250000
H     -2.3058310000  -15.6598780000   15.0705470000
H     13.4447620000  -15.1807340000   -4.9034320000
H     -3.3112720000  -15.1127050000   12.3056570000
H     15.1678760000  -15.7961130000   -7.2706400000
H     -5.6381650000  -15.7099110000   14.0901560000
H     12.2453910000  -15.2356770000   -7.5909780000
H     -6.0287570000  -15.1599000000   11.1744930000
H     13.4185000000  -15.8656820000  -10.2697870000
H     -8.6832040000  -15.7669990000   12.4165060000
H     10.4976310000  -15.2924630000   -9.9577220000
H     -8.4413400000  -15.2108200000    9.4860830000
H     11.0679030000  -15.9350700000  -12.8234080000
H    -11.2983430000  -15.8280550000   10.1289190000
H    -10.4339670000  -15.2646320000    7.3197600000
H      8.2845590000  -15.3480240000  -11.8933630000
H      8.2250870000  -16.0031080000  -14.8113450000
H    -13.3603880000  -15.8916420000    7.3332030000
H      5.7093780000  -15.4002980000  -13.3068490000
H      5.0221060000  -16.0652030000  -16.1411250000
H    -11.9149040000  -15.3191120000    4.7759520000
H    -14.7728240000  -15.9561390000    4.1593590000
H      1.6084490000  -16.1173820000  -16.7517180000
H    -12.8139360000  -15.3710650000    1.9738160000
H    -15.4702900000  -16.0160640000    0.7568830000
H      2.5237810000  -15.0433070000   12.7114880000
H      2.8907020000  -15.4462680000  -14.1340020000
H     -0.0386660000  -15.4829690000  -14.3360100000
H     -1.8561410000  -16.1556890000  -16.6146650000
H    -13.0891400000  -15.4179770000   -0.9549740000
H    -15.4185130000  -16.0717720000   -2.7144870000
H     14.0021420000  -15.0878940000    0.9227930000
H     -2.9425910000  -15.5086510000  -13.9031840000
H    -12.7278440000  -15.4592290000   -3.8729430000
H     -5.2100640000  -16.1802260000  -15.7353990000
H    -14.6206090000  -16.1196100000   -6.0928860000
H     -5.6865230000  -15.5231600000  -12.8565050000
H    -11.7469690000  -15.4915620000   -6.6452200000
H     16.1443390000  -15.6296550000    2.9411070000
H     -8.2980910000  -16.1878570000  -14.1559630000
H    -13.1158380000  -16.1561380000   -9.2202810000
H      5.3682630000  -15.0228430000   11.9673290000
H     13.3330470000  -15.0529880000    3.7881990000
H     -8.1420400000  -15.5241110000  -11.2436110000
H    -10.9750350000  -16.1790900000  -11.9504980000
H    -10.1942710000  -15.5136720000   -9.1411210000
H      7.8387970000  -15.5718680000   13.5642680000
H     14.9931140000  -15.5956860000    6.2177480000
H      4.5944650000  -15.5903890000   14.8012010000
H     10.2521270000  -15.0157270000    8.7571960000
H     13.1628400000  -15.5750020000    9.1689570000
H     10.7400440000  -15.5674320000   11.6569160000
H     12.0634030000  -15.0287930000    6.4404500000
C     -3.8069790000   -4.9562440000   -3.2800550000
C      4.8017460000    6.2109490000   -4.8175100000
O      2.4676520000   -4.9023680000   -8.0363510000
C      4.1180370000    2.5525000000   -3.9099520000
C      0.6424060000   -4.9388580000   -5.7110360000
C      4.6959220000    3.7578300000   -4.6552460000
O      6.7483040000    2.4823040000   -4.6133930000
C     -5.4347210000   -6.0872010000    2.3096540000
O     -3.2844630000   -4.9458690000   -1.9543730000
C     -5.0883320000   -6.1369480000    0.8408690000
C      5.7740760000    1.3115630000   -2.6774750000
C      4.4899970000    0.1092990000    1.3993110000
C     -6.2121790000   -6.1553980000   -0.1644340000
O     -6.7485050000   -4.9436860000   -3.0000190000
C      2.2667010000   -6.1099830000   -7.2576950000
C     -1.3140800000   -6.1739310000   -6.3513290000
C      6.0077880000   -1.1339320000   -0.4433370000
C      3.6304770000   -4.8211670000    2.6747910000
C      6.8799520000    1.3292120000   -1.6488560000
C      6.1144090000    3.7349950000   -4.2006750000
O      7.7851210000    4.8741950000   -1.7273780000
O     -7.0119820000   -4.9149370000   -0.0882990000
C     -4.4530920000   -4.9317990000   -1.1362580000
C      0.9113540000   -6.1558190000   -6.5967390000
O      7.6794740000    0.0993900000   -1.6458550000
C     -0.3120900000   -6.1688440000   -7.4762880000
C     -4.0097120000   -6.1010530000    2.8076250000
C      5.1381710000   -2.3821280000   -0.3326740000
H      4.4074870000    7.2014650000   -4.4703310000
C      5.5779550000   -5.9976500000    3.2757230000
C      4.9770640000    0.0790160000   -2.2212030000
O      1.4750550000   -4.9299610000   -4.5542790000
O      4.0940990000    2.6089660000   -1.4007020000
C      6.9737940000   -3.5640440000   -1.6159440000
S      5.9641390000   -9.4862760000    5.7569600000
C      4.6446400000  -16.1979730000   -5.9169130000
C      3.6189910000   -8.4324410000    4.9723560000
C      2.5526140000   -9.8382120000   -8.0648490000
C     -7.0420160000   -9.8509600000   -0.0301810000
O      2.2953660000   -9.8110000000    2.5402800000
C      4.0521860000   -9.6628880000    5.7599190000
C     -1.5647750000  -17.4476180000    3.6403570000
C     -6.1568900000   -9.8081800000    2.7726800000
S      3.0124700000   -9.4939230000    7.3651990000
O      2.5649930000  -15.0209140000   -7.8667100000
O      7.0557940000  -17.3037900000   -4.3341360000
C     -3.1700670000   -9.8867250000   -7.4347980000
C      3.5093630000    6.1624800000    4.8809140000
H      3.8444330000    7.0203950000    5.4943980000
O      3.8564670000    4.9358730000    5.4929270000
C      4.0866370000    6.2805020000    3.4898410000
H      3.7408450000    7.2715040000    3.0939200000
C      3.4541020000    3.7967430000    4.7569150000
C      3.5775570000    5.1359460000    2.6124160000
C      5.5673240000    6.1769220000    3.2894760000
H      6.0293530000    7.0512370000    3.7919890000
C      6.6503990000   -1.0897660000    0.8844980000
O      3.8217020000    2.5507920000    5.4088650000
C      3.9607510000    3.8273360000    3.3654670000
C      4.5660380000    5.1336650000    1.4259020000
C      4.7091900000   -2.3672460000    1.1232820000
O      3.3186220000   -2.3971320000    1.4211040000
O      6.0968360000    4.9109930000    3.7504490000
C      5.5389630000    6.2734310000    1.7676320000
Si    -4.1547560000    3.9284070000  -17.8747760000
N      4.9501190000    6.8622470000  -10.6039540000
C      4.4666490000    5.9453250000  -11.6368100000
H      5.2462550000    5.9325040000  -13.7455030000
C      4.7596830000    4.5340640000  -11.1671030000
H      3.4378150000    6.1487640000  -11.9934300000
O      3.8329960000    3.4652880000  -11.3496480000
H      4.3054610000    6.3589690000   -8.6911570000
O      4.4883660000    3.5775330000   -9.0283150000
C      4.6012500000    2.2770650000  -11.0480400000
O      3.7710570000    1.1271190000  -11.1995860000
O      4.4449940000    1.2351800000   -8.9005260000
C      4.5747810000   -0.0248810000  -10.9205350000
O      3.7577810000   -1.1879830000  -11.0793870000
O      4.4352070000   -1.0752790000   -8.8125910000
C      4.5718260000   -2.3331150000  -10.8063700000
H      3.9201180000   -3.2287440000  -10.9274520000
H      4.5476620000   -3.1304620000   -8.8567940000
C      0.5619110000    5.8221730000  -13.1070130000
N      0.0132540000    6.7581090000  -12.1211090000
C      0.2154240000    4.4247880000  -12.6444200000
C     -0.4438880000    5.6994040000  -14.2351410000
H      1.6131410000    6.0090560000  -13.4067010000
C     -1.3256470000    7.1824180000  -12.6110750000
C     -0.2072560000    5.9853990000  -10.8960300000
C     -0.7938720000    4.3158490000  -13.7464200000
C     -0.2839250000    4.5145650000  -11.2566870000
O      1.1452280000    3.3512660000  -12.7505070000
N     -1.5843740000    6.5774740000  -13.9422970000
H     -0.0481940000    5.7886680000  -15.2653940000
N     -2.3808910000    6.7550070000  -11.6576660000
C     -1.7163580000    5.9833890000  -10.6057050000
H      0.5430400000    6.2245730000  -10.1229120000
C     -2.2572160000    4.3151160000  -13.4640130000
O     -0.4651600000    3.1887070000  -14.4973930000
C     -1.7781930000    4.5128840000  -10.9665470000
O      0.3409840000    3.4982880000  -10.4763730000
C      0.3511790000    2.1725390000  -12.4897590000
C     -2.7547810000    5.7000950000  -13.7872850000
C     -3.2582830000    5.8218040000  -12.3652890000
H     -2.1286140000    6.2252100000   -9.6165620000
C     -2.7689880000    4.4239870000  -12.0614970000
O     -2.8569600000    3.1873650000  -14.0354890000
C     -0.7203130000    2.0731710000  -13.6317440000
O     -2.0587700000    3.4962310000  -10.0083530000
C     -0.1855540000    2.2651610000  -11.0088760000
O      1.1865790000    1.0219180000  -12.5846640000
H     -3.5112860000    5.7847030000  -14.5943540000
H     -4.3360480000    6.0234060000  -12.2709270000
O     -3.6693250000    3.3505280000  -11.8033160000
C     -2.2910560000    2.0720900000  -13.3289590000
O     -0.4405720000    0.8777220000  -14.3329930000
C     -1.7705300000    2.2640480000  -10.6998180000
O      0.3868280000    1.1554850000  -10.3223800000
C     -2.8358710000    2.1713630000  -11.8636610000
O     -2.8190800000    0.8759560000  -13.8710580000
O     -2.0337160000    1.1537540000   -9.8481220000
O     -3.6397820000    1.0190060000  -11.6287490000
C      0.3663970000   -0.1246180000  -12.3464040000
C     -0.6977680000   -0.2133780000  -13.4720940000
C     -0.1640890000   -0.0375690000  -10.8867800000
O      1.1912730000   -1.2887140000  -12.4564200000
C     -2.2491460000   -0.2146450000  -13.1716470000
O     -0.4218340000   -1.4136620000  -14.1844890000
C     -1.7360230000   -0.0383820000  -10.5783440000
O      0.4038040000   -1.1613020000  -10.2241210000
C      0.3617780000   -2.4321300000  -12.2277550000
C     -2.7895580000   -0.1264400000  -11.7228290000
O     -2.7771940000   -1.4151450000  -13.7261430000
C     -0.6825340000   -2.5128900000  -13.3516540000
O     -2.0020580000   -1.1612990000   -9.7483740000
C     -0.1606680000   -2.3387530000  -10.7966300000
H      1.0171470000   -3.3295500000  -12.3083950000
O     -3.5889040000   -1.2911300000  -11.5051540000
C     -2.2111590000   -2.5140010000  -13.0515010000
H     -0.4620320000   -3.4266980000  -13.9477760000
C     -1.7005820000   -2.3390410000  -10.4901310000
H      0.2882990000   -3.2142140000  -10.2790960000
C     -2.7362210000   -2.4337050000  -11.6109030000
H     -2.6403280000   -3.4306250000  -13.5148590000
H     -1.9125210000   -3.2119160000   -9.8353580000
H     -3.3722510000   -3.3303640000  -11.4300130000
C     -8.3036540000    7.1673100000   -8.9580600000
C     -8.3005310000    4.3157960000  -10.2633630000
N     -6.8891260000    6.7669280000   -9.1593630000
C     -6.8442710000    5.8499250000  -10.2961710000
C     -7.8835780000    4.4881890000   -7.3193650000
C     -6.9020060000    4.4416320000   -9.7463230000
C     -7.6802210000    5.9591020000   -7.0125110000
C     -6.4969450000    5.9868970000   -7.9867530000
H     -6.0656750000    6.0760770000  -11.0382860000
C     -6.7059780000    4.5151720000   -8.2814870000
O     -7.6694050000    3.4643800000   -6.3504570000
O     -6.1055960000    3.3871940000  -10.2804810000
C     -8.1368980000    2.0737290000  -10.2332520000
H     -7.5537450000    6.1925920000   -5.9397620000
H     -5.4889850000    6.2533910000   -7.6701620000
O     -5.7789040000    3.5070120000   -7.8917800000
C     -7.7223700000    2.2384450000   -7.1103240000
C     -6.6704760000    2.1903840000   -9.6979790000
O     -8.1933500000    0.8848660000  -11.0015020000
C     -6.4739520000    2.2674290000   -8.1300310000
O     -7.5469400000    1.1214640000   -6.2423230000
O     -5.9523380000    1.0538590000  -10.1698640000
O     -5.6408290000    1.1645120000   -7.7941030000
C     -8.0084130000   -0.2127100000  -10.1251230000
C     -7.6103030000   -0.0643310000   -7.0404470000
C     -6.5574540000   -0.1083350000   -9.5959440000
O     -8.0751940000   -1.4053910000  -10.9007790000
C     -6.3714080000   -0.0350470000   -8.0494100000
O     -7.4511210000   -1.1962120000   -6.1911490000
O     -5.8550540000   -1.2572300000  -10.0737280000
C     -7.9063330000   -2.5111580000  -10.0399860000
O     -5.5535070000   -1.1490360000   -7.7267110000
C     -7.5100350000   -2.3664410000   -7.0052890000
C     -6.4708880000   -2.4155280000   -9.5054570000
H     -7.9696440000   -3.4236460000  -10.6742310000
C     -6.2902680000   -2.3359740000   -7.9875740000
H     -7.3899240000   -3.2483390000   -6.3389610000
H     -5.9068890000   -3.2991390000   -9.8823040000
H     -5.6425190000   -3.2011080000   -7.7329320000
C     -9.3084840000    6.0394200000   -1.6622050000
H     -9.2280170000    6.2926630000    0.5791400000
H     -8.3076200000    6.3646340000   -1.7682230000
O     -9.5857480000    3.5439830000    0.3462890000
O     -8.6496450000    3.5434440000   -1.8680970000
C     -9.3839910000    2.3156300000   -1.7645970000
O     -9.4369430000    1.1997060000    0.4124600000
O     -8.5106270000    1.2030860000   -1.8179240000
C     -9.2772560000    0.0136790000   -1.7122760000
O     -9.3331700000   -1.1200430000    0.4428880000
O     -8.4211280000   -1.1056360000   -1.7674490000
C     -9.7753750000   -2.3018270000   -0.2318970000
C     -9.1842950000   -2.2877780000   -1.6642960000
H     -9.3438330000   -3.1704850000    0.3151440000
H     -8.5139590000   -3.1659220000   -1.7095640000
H     -6.0529250000    6.4386610000    7.0798620000
C     -7.0235630000    6.1565590000    6.6318040000
N     -8.1692010000    6.9294390000    7.1129510000
C     -7.3914350000    4.6904580000    6.6513960000
C     -7.1002560000    6.1375090000    5.1294770000
C     -8.9414170000    7.3698010000    5.9127220000
C     -9.0175450000    5.9936980000    7.8556540000
C     -7.4638580000    4.6666030000    5.1471430000
C     -8.6466800000    4.5975430000    7.4103500000
O     -6.4828690000    3.6759000000    7.0863880000
N     -8.2502060000    6.9153390000    4.6863070000
H     -6.2359190000    6.4772310000    4.6401530000
N    -10.2981880000    6.7636370000    5.9440410000
C    -10.3369600000    5.8807210000    7.1116630000
H     -9.0673510000    6.1703790000    8.9512670000
C     -8.7485960000    4.5819700000    4.3941570000
O     -6.6003490000    3.6330560000    4.7110120000
C     -9.9467520000    4.4954850000    6.6535030000
O     -8.5450100000    3.5266740000    8.3331230000
C     -7.1292850000    2.4358020000    6.7053610000
C     -9.1268240000    5.9881330000    3.9706300000
C    -10.4151860000    5.8912030000    4.7581240000
C    -10.0241400000    4.4936360000    5.1692890000
O     -8.6925520000    3.5035670000    3.4661050000
C     -7.2289300000    2.4154930000    5.1253740000
O    -10.6110020000    3.3743950000    7.1221110000
C     -8.4695000000    2.3469910000    7.5042440000
O     -6.3208810000    1.3275520000    7.1066250000
H     -9.2175700000    6.1746610000    2.8828020000
C     -8.5971760000    2.3277880000    4.2990210000
O     -6.4648020000    1.2964270000    4.7190030000
C     -9.8344750000    2.2512090000    6.6881770000
O     -8.3834770000    1.2001890000    8.3412180000
C     -9.9371060000    2.2425400000    5.1034950000
O     -8.5328700000    1.1694010000    3.4712300000
O    -10.4621860000    1.0614170000    7.1140000000
C     -7.0059880000    0.1282810000    6.7147130000
C     -7.1166710000    0.1151210000    5.1523110000
C     -8.3317040000    0.0504440000    7.5011240000
O     -6.2139370000   -0.9949200000    7.1128330000
C     -8.4630840000    0.0282260000    4.3311520000
O     -6.3703360000   -1.0107910000    4.7478790000
C     -9.6835670000   -0.0372160000    6.6881200000
O     -8.2595130000   -1.1033800000    8.3388820000
C     -6.9120480000   -2.1826360000    6.7182620000
C     -9.7868340000   -0.0497070000    5.1231550000
O     -8.4104130000   -1.1431920000    3.5160210000
C     -7.0166240000   -2.1858090000    5.1833410000
O    -10.3196420000   -1.2336160000    7.1144370000
C     -8.2225710000   -2.2533150000    7.5029290000
H     -6.2801510000   -3.0463570000    7.0283640000
O    -10.4540810000   -1.2561760000    4.7417920000
C     -8.3393860000   -2.2764300000    4.3854900000
H     -6.4351730000   -3.0696790000    4.8629660000
C     -9.5635540000   -2.3361320000    6.7147670000
H     -8.1702730000   -3.1397740000    8.1741200000
C     -9.6466100000   -2.3535760000    5.1674700000
H     -8.2948460000   -3.1804540000    3.7364810000
H    -10.0986980000   -3.2412390000    7.0784320000
H    -10.1768590000   -3.2845580000    4.8647570000
C     -2.2753100000    7.4870690000   10.1124550000
N     -1.0648360000    7.0289770000   10.8500430000
N     -3.4878610000    6.9044150000   10.7509070000
N     -2.1968860000    7.0111440000    8.7075970000
C     -0.2635130000    6.2361080000    9.9193450000
C     -1.5067750000    6.1135780000   11.9026850000
C     -3.0218080000    6.0289820000   11.8327060000
C     -4.1321010000    6.0312200000    9.7530860000
C     -3.3175900000    6.0917370000    8.4776110000
C     -0.9742670000    6.2108760000    8.6010590000
C     -0.6013740000    4.7802130000   10.1161950000
H      0.7829430000    6.5360140000    9.8605340000
C     -1.3993260000    4.7110880000   11.3503790000
H     -1.0522330000    6.2948650000   12.8992850000
C     -2.9043510000    4.6329950000   11.2711950000
H     -3.5756210000    6.1482510000   12.7828770000
C     -3.6300430000    4.6263300000    9.9802840000
H     -5.2316330000    6.1560610000    9.6533820000
C     -2.8205780000    4.6789170000    8.7229510000
H     -3.8636190000    6.2594820000    7.5294330000
C     -1.3236670000    4.7497480000    8.8026980000
H     -0.3411340000    6.4917710000    7.7759230000
O      0.3923500000    3.7546570000   10.1148170000
O     -0.9112960000    3.6437060000   12.1311500000
O     -3.3137260000    3.5256950000   12.0058190000
O     -4.5058940000    3.5079570000    9.9133260000
O     -3.2151820000    3.5926390000    7.8962800000
O     -0.7480970000    3.7079800000    8.0306030000
C     -0.3727480000    2.5256350000   10.0657620000
C     -1.2331910000    2.4610720000   11.3713740000
C     -2.8263250000    2.3855280000   11.2839710000
C     -3.6183670000    2.3692490000    9.9218160000
C     -2.7618230000    2.4254110000    8.6075300000
C     -1.1490960000    2.5004730000    8.6944430000
O      0.5155170000    1.4092190000   10.0808490000
O     -0.7934140000    1.3163080000   12.0851480000
O     -3.2094600000    1.2072470000   11.9627710000
O     -4.4007680000    1.1790830000    9.8860440000
O     -3.1029120000    1.2612990000    7.8653850000
O     -0.6475750000    1.3746160000    7.9908110000
C     -0.2835830000    0.2203840000   10.0377540000
C     -1.1363810000    0.1644150000   11.3266600000
C     -2.7142570000    0.0928570000   11.2438500000
C     -3.4975050000    0.0724110000    9.9019760000
C     -2.6501860000    0.1279500000    8.6049380000
C     -1.0561880000    0.2017500000    8.6843900000
O      0.5926140000   -0.9087260000   10.0603870000
O     -0.7034030000   -0.9845830000   12.0487570000
O     -3.1005720000   -1.0930060000   11.9287010000
O     -4.2737050000   -1.1305010000    9.8764190000
O     -2.9950970000   -1.0478410000    7.8810660000
O     -0.5631800000   -0.9327930000    7.9910800000
C     -0.2133820000   -2.0901710000   10.0254600000
C     -1.0499750000   -2.1387430000   11.3117350000
C     -2.6043020000   -2.2092700000   11.2410000000
C     -3.3636400000   -2.2346020000    9.9039880000
C     -2.5314160000   -2.1715130000    8.6259730000
C     -0.9698750000   -2.0979060000    8.6916790000
H      0.4843540000   -2.9584130000   10.0374540000
H     -0.7026470000   -3.0142400000   11.9049010000
H     -2.9190140000   -3.1078350000   11.8171970000
H     -3.9782900000   -3.1633060000    9.8792830000
H     -2.8047660000   -3.0869210000    8.0570510000
H     -0.5809120000   -2.9787970000    8.1382750000
P     -5.2920930000   -2.7060990000  -15.7930520000
S      1.7438370000    4.0279430000  -22.0386960000
S     -2.8043180000    0.5390650000  -21.8827900000
Si    -0.4414780000    2.2678560000  -19.7363130000
P      1.3431830000    4.0734910000  -17.0664810000
Si    -4.0344280000   -2.6915380000  -17.6165120000
S     -5.0734170000   -0.6632750000  -15.0623820000
Si    -7.4502520000   -2.7030460000  -16.2390560000
Si    -6.7015700000   -1.1023170000  -19.3614770000
Si    -2.6273850000    2.2609830000  -20.5899870000
S      1.8154440000   -2.7789540000  -21.8136150000
P      4.7367580000    4.1367980000  -16.4051130000
S      6.1870080000    0.6609880000  -21.2339250000
Si    -0.3990440000   -1.0387500000  -19.5928300000
Si    -0.3288490000   -2.6529740000  -18.1636410000
S      4.4682610000    2.1728380000  -15.4882970000
Si     1.5986110000    5.7268950000  -20.6854640000
Si     3.3218910000    0.7117190000  -17.9436570000
Si    -6.7698040000    2.2368920000  -19.4898590000
S     -2.8330060000    3.9771790000  -21.8878750000
C     -5.5077860000    0.6536890000  -16.2538920000
Si    -4.4735390000    2.2397010000  -19.1416250000
P     -2.1230150000    4.0489610000  -17.0609790000
S     -0.4552640000    7.3085900000  -18.0556520000
Si     3.4792890000    5.8307420000  -19.2681510000
S     -1.9908990000   -0.6255340000  -16.2181340000
S      1.3873950000    2.1063620000  -16.1471330000
Si    -0.3576510000    0.6617170000  -18.3077550000
C     -1.3632870000    1.2114940000   -6.3338570000
S      1.7998350000    0.5930740000  -22.0340360000
Si     5.7410250000    5.7923480000  -19.9252500000
Si     1.6928510000   -1.0259860000  -20.5982330000
C      1.4269530000    0.7050960000  -17.2977980000
S     -7.7990930000    7.9102780000   18.2716650000
O     -3.2845160000    4.7388140000   -7.5588260000
Si    -6.7592320000    5.6551720000  -19.4533650000
Si    -4.4481310000    5.7492750000  -19.0102120000
P     -5.4261660000    4.0257530000  -16.0518400000
S     -5.1316280000    2.0636840000  -15.1582000000
O     -3.2074390000    2.3559190000   -7.4442280000
Si    -2.6495240000    5.6792910000  -20.5416710000
Si    -0.4872950000    5.7786380000  -19.5935010000
S      1.6811590000    7.3701820000  -22.0797870000
Si     5.8008200000    2.3747330000  -19.9776400000
Si    -4.1181250000    0.6299330000  -17.7609480000
O     -0.4305880000   -0.0384650000   -8.1751860000
S     -2.7347710000   -2.8362690000  -21.6576860000
C     -2.1550510000    0.6522980000  -17.4257660000
Si    -4.4115980000   -1.0785890000  -19.0018220000
Si     3.5795430000   -0.9815090000  -19.2361460000
S      6.1359340000    4.0992540000  -21.2355510000
S      6.1890240000   -2.7140820000  -21.0209250000
Si     3.5547230000    2.3226920000  -19.3716130000
S    -10.8305530000    2.3497220000    9.5454670000
P      1.4081860000   -2.6517680000  -16.7907280000
C      4.8385220000    0.7621640000  -16.6106390000
Si   -11.0496660000    4.3326510000   12.0236300000
P     -2.0178350000   -2.6999000000  -16.7688720000
Si     3.3477460000   -2.6094860000  -17.8333230000
Si    -2.5759060000   -1.0765310000  -20.4556220000
Si     3.2969850000    4.0106800000  -18.0841630000
S      4.4860670000   -0.5729530000  -15.3906720000
Si     1.6594710000    2.3090580000  -20.7313630000
S      3.1789820000    7.3714420000  -17.7722040000
S      6.1096180000    7.4386920000  -21.2673820000
S    -10.8455360000    7.6686220000   11.6211880000
S     -4.4825560000    7.7836490000   15.1543310000
S     -4.0619130000    7.2811330000  -17.5239470000
S     -3.4454940000    7.9894430000   19.5846650000
S    -11.7402750000    7.8332600000   16.0910440000
S     -0.8842190000    7.8401380000   15.8172800000
S     -7.8461080000    7.7446700000   13.7142490000
S     -2.8665060000    7.3216360000  -21.9226070000
S      1.3942440000   -0.6100740000  -16.0383410000
C      3.0273130000   -3.6705050000   -5.9833620000
P      1.0181090000   -2.1306570000   14.9097670000
S      1.0116030000   -0.1126420000   14.0742050000
Si    -0.7570760000   -2.1142680000   16.2388680000
C      1.0153940000    1.2500750000   15.2995790000
Si    -0.8758050000   -0.4542970000   17.6187970000
P     -2.3921310000   -2.1907230000   14.7946350000
C      0.9769350000   -2.4777000000   -5.6641110000
Si    -0.8428500000   -3.9578310000   17.3751400000
S      0.9656160000    2.6228200000   14.0818630000
Si    -0.7760140000    1.2217020000   16.3029770000
Si    -3.0866950000   -0.4606290000   18.3945300000
S     -2.2005470000   -0.1316280000   14.2217240000
Si    -4.4499640000   -2.1503400000   15.5548140000
Si    -3.0293340000   -3.8580960000   18.2795480000
P      0.9436640000    4.6082390000   14.9783010000
Si    -0.9201850000    2.8740600000   17.6689230000
C     -2.5156140000    1.1842180000   15.3484260000
S     -3.3598180000    1.1957220000   19.7672460000
Si    -4.8698560000   -0.4992830000   16.8740300000
S     -3.2973740000   -2.1869990000   19.6365360000
P     -5.6624610000   -2.2447610000   13.7026060000
O      2.3812610000   -2.4524230000   -8.0265440000
Si    -4.7494510000   -3.9989120000   16.6575660000
Si   -10.9311680000    6.1594710000   14.9975340000
S     -2.0345010000    2.0305170000  -16.3516240000
Si    -0.8400850000    4.5179990000   16.3099210000
Si    -3.1423580000    2.8796330000   18.4309610000
S     -2.2617850000    2.5238730000   14.2474080000
Si    -4.5182370000    1.1598680000   15.5800300000
Si    -7.1769350000   -0.5219260000   17.1511850000
S     -5.4703570000   -0.2253880000   12.9276870000
Si    -7.8360290000   -2.2260440000   14.0572960000
Si    -7.0739260000   -3.9144510000   17.0672160000
Si    -0.9704110000    6.3742240000   17.4112490000
P     -2.5052200000    4.5476820000   14.8908580000
S     -3.4041350000    4.6366290000   19.6652180000
Si    -4.9375190000    2.7950280000   16.9163460000
C     -5.9147120000    1.1180930000   14.0691040000
S     -7.7726560000    1.1278290000   18.4225510000
Si    -8.5342330000   -0.5697510000   15.2589700000
S     -7.6495920000   -2.2445300000   18.3225490000
P     -8.6524730000   -2.2997230000   12.0041020000
C      0.8568760000   -1.2428160000   -6.5541720000
Si    -8.3860510000   -4.0577760000   15.1073880000
Si    -3.1719230000    6.2967310000   18.2734950000
Si    -4.5790510000    4.4366980000   15.6135830000
Si    -7.2504870000    2.8115110000   17.1774700000
S     -5.5710450000    2.4849700000   12.9422950000
Si    -7.9131770000    1.0948810000   14.0586270000
Si   -10.8526680000   -0.5979890000   15.1276980000
S     -8.1695480000   -0.2858730000   11.2902540000
Si   -10.8729530000   -2.3011240000   11.9918500000
Si   -10.7449180000   -3.9877790000   15.0454030000
Si     5.8205170000   -0.9661940000  -19.8497620000
Si    -4.9162670000    6.3004960000   16.6758160000
P     -5.8102500000    4.4828040000   13.7565670000
S     -7.7823600000    4.5614180000   18.3309630000
Si    -8.6146370000    2.7376150000   15.2844200000
C     -8.9161060000    1.0728050000   12.2956400000
S    -11.6693900000    1.0520990000   16.2714460000
Si   -11.8177160000   -0.6521610000   13.0236170000
S    -11.5442000000   -2.3231770000   16.1787570000
P    -11.3003790000   -2.3736860000    9.8508740000
Si   -11.6287670000   -4.1374340000   12.8613180000
Si    -0.4096510000    3.9509990000  -18.4293980000
Si    -7.2434960000    6.2282990000   17.0385630000
Si    -7.9890220000    4.3982130000   14.0894110000
Si   -10.9373020000    2.7428910000   15.1458920000
S     -8.2430850000    2.4676850000   11.2892230000
Si   -10.9518240000    1.0285750000   12.0366580000
S    -10.7504090000   -0.3185440000    9.5311250000
P      4.7776940000   -2.6027710000  -16.1520230000
Si    -8.5770620000    6.2406420000   15.0928160000
P     -8.8239950000    4.4404560000   12.0329180000
S    -11.6886550000    4.4903730000   16.1726420000
C     -0.9094440000   -0.0108420000   -5.5192850000
O     -6.6876000000   -0.0476440000   -3.1249530000
O     -0.4595870000    2.3715440000   -8.2372700000
C     -4.7520820000    1.1901610000   -5.0373440000
O     -6.9755110000   -2.4652190000   -0.0584650000
C     -2.8666640000    3.6204420000   -6.7872760000
O     -5.5264230000    4.7208950000   -5.6332100000
H     -3.2935290000    6.8237310000   -7.5734160000
C     -2.9567570000    5.9805970000   -6.9343740000
O     -0.4935840000    4.7409530000   -8.3836840000
O     -5.4051630000    2.3510680000   -5.5381920000
C     -5.9508560000   -1.2478720000   -2.8147110000
C     -3.7934840000   -0.0168940000   -3.2934330000
C     -4.4165340000   -2.4794890000   -1.5194820000
C     -6.2125500000   -3.6783630000   -0.1856420000
C     -2.6079090000    2.4812410000   -4.7398790000
C     -2.7928020000   -3.7439330000   -6.7076150000
C     -3.2822200000   -3.7293890000   -5.2810320000
O     -3.1653040000   -2.5004430000   -7.4039800000
C     -1.3313310000   -3.7242450000   -6.3418080000
O     -5.3578790000   -2.4987540000   -5.4851820000
C     -2.5657550000   -2.4993340000   -4.6989800000
O     -3.1688470000   -0.0595440000   -7.4076890000
C     -1.2383840000   -2.4953630000   -5.4204080000
C     -0.3291560000   -3.6945480000   -7.4454120000
C     -3.2744860000   -1.2677730000   -5.2723740000
C     -4.7316350000   -1.2934030000   -5.0139560000
C     -5.9763470000   -3.7369220000   -2.7829260000
O     -1.4531930000   -0.0007930000   -4.2126730000
C     -2.8124850000    1.1551000000   -6.7129420000
C     -1.3427680000   -1.2605280000   -6.3180300000
C      0.8859200000   -3.7090480000   -6.5837960000
C     -0.3444350000   -1.2739870000   -7.4016640000
C     -4.7560920000   -3.7138470000   -5.0317240000
C     -3.2935510000    1.2021550000   -5.2890170000
C     -2.8460820000   -0.0189410000   -4.4678910000
O     -5.3547390000   -0.0595660000   -5.4887990000
O     -6.7043680000   -2.4923240000   -3.0751390000
C     -3.9679590000   -2.4981110000   -2.9662290000
O     -0.0329650000   -2.4915010000   -4.6605890000
C     -4.6587040000   -1.2671270000   -3.5446790000
C     -2.7934300000   -1.2565270000   -6.6977840000
O     -0.4095150000   -2.4759030000   -8.1844660000
C     -5.3379790000   -3.7025940000   -1.4142090000
C      2.2264900000   -3.7009400000   -7.2630010000
C     -4.6821160000   -3.7341050000   -3.5432930000
O     -2.5783330000   -2.5003850000   -3.2738380000
C      2.0246880000    6.2722410000    4.6179180000
H      1.8786870000    7.2661800000    4.1177560000
C      1.5759880000    5.1292480000    3.7011990000
C      1.0363820000    6.1596870000    5.7475030000
H      1.1529860000    7.0328770000    6.4187130000
C      2.0073310000    3.8200060000    4.4305490000
O      2.1634390000    5.2383170000    2.3964930000
C      0.0441920000    5.1170480000    3.8764300000
O      1.1316280000    4.8908410000    6.4383720000
C     -0.2055010000    6.2539490000    4.8791360000
H     -0.1919740000    7.2502230000    4.3637180000
C      1.9084280000    2.6057150000    3.4932310000
C      1.0269320000    3.7347830000    5.5760780000
C     -0.1978550000    3.8021150000    4.6846260000
O     -0.8140470000    5.2132380000    2.7293730000
C     -1.6105310000    6.1210490000    5.4458940000
H     -1.8420100000    6.9754720000    6.1100790000
C      2.0089840000    1.3487720000    4.3969260000
O      0.7108790000    2.6205040000    2.7372220000
O      1.1365800000    2.5252940000    6.3390070000
C     -0.2885230000    2.5878120000    3.7425540000
C     -1.5508660000    3.7560870000    5.3122820000
C     -2.1450400000    5.0881720000    3.2439660000
O     -1.8265810000    4.8907660000    6.1128460000
C     -2.4655990000    6.2288210000    4.2064160000
H     -2.2272840000    7.2218110000    3.7421550000
C      1.5847740000    0.1020830000    3.6146350000
C      1.0430770000    1.3465910000    5.5400120000
C     -0.1674970000    1.3304430000    4.6490050000
C     -1.7441650000    2.5694240000    3.3213890000
O     -1.7739530000    2.5051910000    6.0222670000
C     -2.3352830000    3.7759440000    4.0578040000
C     -3.3698800000    5.0657510000    2.3000150000
C     -3.9476670000    6.0996120000    4.3371730000
H     -4.2867430000    6.9647300000    4.9443510000
C      2.0398530000   -1.1195130000    4.4394990000
O      2.1335770000    0.0943230000    2.3034050000
C      0.0957330000    0.0902620000    3.7845380000
O      1.1631460000    0.1212780000    6.3415710000
O      3.7517570000    5.1963470000   -2.8704820000
C     -1.5099180000    1.2895350000    5.2747000000
C     -2.2878480000    1.3049280000    4.0269720000
O     -2.0765720000    2.5841460000    1.9464630000
C     -3.8273860000    3.6764940000    4.1952320000
C     -4.1090780000    3.7431290000    2.7011760000
C     -4.2659850000    6.1903000000    2.8431160000
H     -3.9036670000    7.1896250000    2.4889210000
O     -3.1618550000    5.1704180000    0.8865790000
O     -4.3362950000    4.8276010000    4.9071800000
C      1.9646190000   -2.3738250000    3.5666280000
C      1.0689130000   -1.1286260000    5.5813940000
C     -0.1447940000   -1.1356720000    4.6908630000
O     -0.7255140000    0.0710090000    2.6239880000
C      3.9443600000    5.0702010000   -4.2807720000
O     -1.7435660000    0.0942510000    6.0250940000
C     -2.0344210000    0.0631950000    3.1717830000
C     -3.7652230000    1.2879570000    4.1716980000
C     -3.4966860000    2.5370020000    1.9649020000
O     -4.2391060000    2.4610910000    4.8327170000
C     -5.5284360000    3.6856000000    2.1763940000
C     -5.6734020000    6.0474070000    2.2316230000
H     -6.3260800000    6.8983090000    2.5162420000
C     -4.4586740000    5.0352270000    0.3027720000
C      2.0825270000   -3.5774060000    4.5196370000
O      0.7630750000   -2.4090590000    2.8095040000
O      1.1830780000   -2.3125730000    6.4093880000
C     -0.2414440000   -2.3900520000    3.8150920000
C     -1.4881400000   -1.1202840000    5.3154840000
C      2.7349130000    5.0500450000   -5.2517960000
C     -2.2675360000   -1.1669430000    4.0685550000
C     -3.2251740000    0.0448720000    2.2529530000
O     -4.1852810000    0.0552290000    4.8469290000
C     -4.0415150000    1.2720650000    2.6880620000
C     -4.2172670000    2.5174510000    0.6370890000
O     -6.2012140000    2.4273200000    2.4934800000
C     -5.1656400000    3.7154280000    0.7332860000
O     -6.3123640000    4.8144720000    2.5364480000
C     -5.3807810000    6.1665100000    0.7498400000
H     -4.8884340000    7.1631260000    0.6037300000
C     -4.6291780000    5.0176100000   -1.2351020000
C      1.0931190000   -3.5396000000    5.6541750000
C     -0.1260770000   -3.5927320000    4.7679720000
C     -1.7015430000   -2.4114930000    3.3932510000
O     -1.7198290000   -2.3420180000    6.0972040000
O      3.6615070000    0.0633350000   -2.7550940000
O      2.6997880000    2.5701010000   -3.9106490000
C      2.9556870000    3.7262580000   -6.0607150000
C      3.0523900000    6.1754890000   -6.2469550000
H      2.7924570000    7.1752050000   -5.8117470000
O      1.4042170000    5.1579620000   -4.7309020000
C     -3.7452270000   -1.1903130000    4.2073860000
C     -4.0248560000   -1.1902330000    2.7215760000
O     -2.9791440000    0.0349020000    0.8556100000
C     -5.4552140000    1.2181700000    2.1678080000
C     -5.0892590000    1.2446370000    0.7350340000
O     -3.4594270000    2.5441110000   -0.5589930000
C     -6.2911910000    3.6098920000   -0.2504410000
C     -6.4979120000    6.0339160000   -0.2355780000
H     -7.1752710000    6.8976170000   -0.0887430000
C     -5.4211000000    3.6895500000   -1.4904450000
C     -5.6476330000    6.1362740000   -1.4967490000
H     -5.1482480000    7.1388990000   -1.4763900000
O     -3.4700890000    5.1360130000   -2.0717320000
C     -1.4778390000   -3.6066640000    5.4105060000
C     -2.2689200000   -3.6299330000    4.1436650000
O     -2.0295150000   -2.4373920000    2.0128270000
C      3.8942220000    0.0480890000   -4.1500000000
C      2.3809630000    2.5220190000   -5.2955370000
C      2.1463200000    3.6671720000   -7.3381320000
C      2.1585930000    6.0293590000   -7.4905630000
H      2.2937070000    6.8826300000   -8.1877600000
C      0.5471170000    5.0242780000   -5.8675570000
O     -4.2022980000   -2.3844380000    4.8883840000
C     -3.4534500000   -2.4328660000    2.0234770000
C     -5.4393710000   -1.1927820000    2.2010360000
C     -4.2848290000    0.0136550000    0.3119550000
O     -6.1655860000    0.0116720000    2.4994390000
C     -6.2093670000    1.2200220000   -0.2339780000
C     -4.4563130000    2.4926470000   -1.5684490000
O     -7.0219820000    2.3857600000   -0.1146480000
O     -7.1622680000    4.7539130000   -0.1220330000
C     -6.0449070000    3.6337780000   -2.8698870000
C     -6.1942090000    5.9956260000   -2.9302220000
H     -6.8503230000    6.8477270000   -3.2059300000
C     -3.9573690000    5.0047800000   -3.4086150000
C     -3.7651060000   -3.6051690000    4.2577410000
C      2.7174740000    0.0282330000   -5.0917750000
C      2.9542630000    1.2540640000   -5.9890690000
C      0.9267720000    2.5066760000   -5.6990760000
O      2.3247750000    2.4072930000   -8.0635020000
C      0.8145170000    3.7024290000   -6.6519400000
O      2.3426980000    4.7947360000   -8.1831000000
C      0.7773540000    6.1525600000   -6.8709860000
H      0.7466200000    7.1513450000   -6.3615830000
C     -0.9953480000    5.0115510000   -5.7027410000
C     -4.0277970000   -3.6450750000    2.7708000000
C     -4.1786400000   -2.4606480000    0.6928780000
O     -6.1544960000   -2.4299960000    2.5669250000
C     -5.0737070000   -1.2279820000    0.7670390000
C     -4.4499970000   -0.0015820000   -1.1839510000
O     -6.9676110000   -0.0244850000   -0.0790180000
C     -5.3431470000    1.2183270000   -1.4629050000
C     -4.0053320000    2.4853620000   -3.0104540000
O     -6.7351890000    2.3699910000   -3.1334590000
C     -4.7508150000    3.6792540000   -3.6139580000
O     -6.8626330000    4.7590660000   -3.1697490000
C     -4.9280100000    6.1296940000   -3.7500490000
H     -4.4855990000    7.1279650000   -3.4942640000
C     -2.9871350000    5.0029640000   -4.6189470000
O      2.7541980000   -2.4511510000   -3.8699820000
C      2.9824860000   -1.2126660000   -5.9742070000
O      1.4137980000    0.0230100000   -4.5324700000
C      2.1478830000    1.1996670000   -7.2611050000
C      0.8298860000    1.2314710000   -6.5688350000
O     -0.0823040000    2.5391190000   -4.6990150000
C     -0.3989810000    3.5987960000   -7.5126910000
C     -0.4417880000    6.0268060000   -7.7270560000
H     -0.5100580000    6.9039090000   -8.3962310000
C     -1.4075300000    3.6820070000   -6.4148020000
C     -1.4643040000    6.1305640000   -6.6396750000
H     -1.3424220000    7.1344890000   -6.1550890000
O     -1.5795600000    5.1346330000   -4.4043790000
C     -5.4480860000   -3.6805580000    2.2646210000
C     -5.0919640000   -3.6933070000    0.8074120000
O     -3.4185950000   -2.4746930000   -0.5057260000
C     -6.1902990000   -1.2610700000   -0.2043920000
C     -5.3283120000   -1.2461940000   -1.4387600000
O     -3.2732790000    0.0042520000   -1.9791290000
C     -5.9638580000    1.1653520000   -2.8375230000
C     -4.6728200000    1.2079710000   -3.5668050000
O     -2.6196580000    2.5275200000   -3.3176390000
C     -4.8270690000    3.5801340000   -5.0995850000
C     -5.0011970000    6.0074510000   -5.2366820000
H     -5.5483380000    6.8813870000   -5.6348140000
C     -3.3550640000    3.6732410000   -5.3587860000
C     -3.5310770000    6.1209070000   -5.5194990000
H     -3.1971680000    7.1268110000   -5.1529530000
C      2.4340870000   -2.4534430000   -5.2575120000
C      2.1746100000   -1.2133120000   -7.2478460000
C      0.5912540000    0.0017540000   -5.6829020000
O      2.3237890000   -0.0098490000   -8.0275260000
C     -0.3694430000    1.2091610000   -7.4235350000
C     -1.2845160000    2.4876130000   -5.4581460000
