660
XYZ file generated by Avogadro.
C      0.0000000000   36.9187000000    0.0000000000
C      0.7105000000   38.1493000000    0.0000000000
C      0.0000000000   39.3799000000    0.0000000000
C      0.0000000000   31.9962000000    0.0000000000
C      0.7105000000   33.2268000000    0.0000000000
C      0.0000000000   34.4574000000    0.0000000000
C      2.1315000000   35.6880000000    0.0000000000
C      0.7105000000   35.6880000000    0.0000000000
C      2.8420000000   36.9187000000    0.0000000000
C      2.1315000000   38.1493000000    0.0000000000
C      4.2630000000   39.3799000000    0.0000000000
C      2.8420000000   39.3799000000    0.0000000000
C      0.0000000000   27.0737000000    0.0000000000
C      0.7105000000   28.3043000000    0.0000000000
C      0.0000000000   29.5349000000    0.0000000000
C      2.1315000000   30.7656000000    0.0000000000
C      0.7105000000   30.7656000000    0.0000000000
C      2.8420000000   31.9962000000    0.0000000000
C      2.1315000000   33.2268000000    0.0000000000
C      4.2630000000   34.4574000000    0.0000000000
C      2.8420000000   34.4574000000    0.0000000000
C      4.9735000000   35.6880000000    0.0000000000
C      4.2630000000   36.9187000000    0.0000000000
C      6.3945000000   38.1493000000    0.0000000000
C      4.9735000000   38.1493000000    0.0000000000
C      7.1050000000   39.3799000000    0.0000000000
C      0.0000000000   22.1512000000    0.0000000000
C      0.7105000000   23.3818000000    0.0000000000
C      0.0000000000   24.6124000000    0.0000000000
C      2.1315000000   25.8431000000    0.0000000000
C      0.7105000000   25.8431000000    0.0000000000
C      2.8420000000   27.0737000000    0.0000000000
C      2.1315000000   28.3043000000    0.0000000000
C      4.2630000000   29.5349000000    0.0000000000
C      2.8420000000   29.5349000000    0.0000000000
C      4.9735000000   30.7656000000    0.0000000000
C      4.2630000000   31.9962000000    0.0000000000
C      6.3945000000   33.2268000000    0.0000000000
C      4.9735000000   33.2268000000    0.0000000000
C      7.1050000000   34.4574000000    0.0000000000
C      6.3945000000   35.6880000000    0.0000000000
C      8.5260000000   36.9187000000    0.0000000000
C      7.1050000000   36.9187000000    0.0000000000
C      9.2365000000   38.1493000000    0.0000000000
C      8.5260000000   39.3799000000    0.0000000000
C      0.0000000000   17.2287000000    0.0000000000
C      0.7105000000   18.4593000000    0.0000000000
C      0.0000000000   19.6900000000    0.0000000000
C      2.1315000000   20.9206000000    0.0000000000
C      0.7105000000   20.9206000000    0.0000000000
C      2.8420000000   22.1512000000    0.0000000000
C      2.1315000000   23.3818000000    0.0000000000
C      4.2630000000   24.6124000000    0.0000000000
C      2.8420000000   24.6124000000    0.0000000000
C      4.9735000000   25.8431000000    0.0000000000
C      4.2630000000   27.0737000000    0.0000000000
C      6.3945000000   28.3043000000    0.0000000000
C      4.9735000000   28.3043000000    0.0000000000
C      7.1050000000   29.5349000000    0.0000000000
C      6.3945000000   30.7656000000    0.0000000000
C      8.5260000000   31.9962000000    0.0000000000
C      7.1050000000   31.9962000000    0.0000000000
C      9.2365000000   33.2268000000    0.0000000000
C      8.5260000000   34.4574000000    0.0000000000
C     10.6575000000   35.6880000000    0.0000000000
C      9.2365000000   35.6880000000    0.0000000000
C     11.3680000000   36.9187000000    0.0000000000
C     10.6575000000   38.1493000000    0.0000000000
C     12.7890000000   39.3799000000    0.0000000000
C     11.3680000000   39.3799000000    0.0000000000
C      0.0000000000   12.3062000000    0.0000000000
C      0.7105000000   13.5368000000    0.0000000000
C      0.0000000000   14.7675000000    0.0000000000
C      2.1315000000   15.9981000000    0.0000000000
C      0.7105000000   15.9981000000    0.0000000000
C      2.8420000000   17.2287000000    0.0000000000
C      2.1315000000   18.4593000000    0.0000000000
C      4.2630000000   19.6900000000    0.0000000000
C      2.8420000000   19.6900000000    0.0000000000
C      4.9735000000   20.9206000000    0.0000000000
C      4.2630000000   22.1512000000    0.0000000000
C      6.3945000000   23.3818000000    0.0000000000
C      4.9735000000   23.3818000000    0.0000000000
C      7.1050000000   24.6124000000    0.0000000000
C      6.3945000000   25.8431000000    0.0000000000
C      8.5260000000   27.0737000000    0.0000000000
C      7.1050000000   27.0737000000    0.0000000000
C      9.2365000000   28.3043000000    0.0000000000
C      8.5260000000   29.5349000000    0.0000000000
C     10.6575000000   30.7656000000    0.0000000000
C      9.2365000000   30.7656000000    0.0000000000
C     11.3680000000   31.9962000000    0.0000000000
C     10.6575000000   33.2268000000    0.0000000000
C     12.7890000000   34.4574000000    0.0000000000
C     11.3680000000   34.4574000000    0.0000000000
C     13.4995000000   35.6880000000    0.0000000000
C     12.7890000000   36.9187000000    0.0000000000
C     14.9205000000   38.1493000000    0.0000000000
C     13.4995000000   38.1493000000    0.0000000000
C     15.6310000000   39.3799000000    0.0000000000
C      0.0000000000    7.3837000000    0.0000000000
C      0.7105000000    8.6144000000    0.0000000000
C      0.0000000000    9.8450000000    0.0000000000
C      2.1315000000   11.0756000000    0.0000000000
C      0.7105000000   11.0756000000    0.0000000000
C      2.8420000000   12.3062000000    0.0000000000
C      2.1315000000   13.5368000000    0.0000000000
C      4.2630000000   14.7675000000    0.0000000000
C      2.8420000000   14.7675000000    0.0000000000
C      4.9735000000   15.9981000000    0.0000000000
C      4.2630000000   17.2287000000    0.0000000000
C      6.3945000000   18.4593000000    0.0000000000
C      4.9735000000   18.4593000000    0.0000000000
C      7.1050000000   19.6900000000    0.0000000000
C      6.3945000000   20.9206000000    0.0000000000
C      8.5260000000   22.1512000000    0.0000000000
C      7.1050000000   22.1512000000    0.0000000000
C      9.2365000000   23.3818000000    0.0000000000
C      8.5260000000   24.6124000000    0.0000000000
C     10.6575000000   25.8431000000    0.0000000000
C      9.2365000000   25.8431000000    0.0000000000
C     11.3680000000   27.0737000000    0.0000000000
C     10.6575000000   28.3043000000    0.0000000000
C     12.7890000000   29.5349000000    0.0000000000
C     11.3680000000   29.5349000000    0.0000000000
C     13.4995000000   30.7656000000    0.0000000000
C     12.7890000000   31.9962000000    0.0000000000
C     14.9205000000   33.2268000000    0.0000000000
C     13.4995000000   33.2268000000    0.0000000000
C     15.6310000000   34.4574000000    0.0000000000
C     14.9205000000   35.6880000000    0.0000000000
C     17.0520000000   36.9187000000    0.0000000000
C     15.6310000000   36.9187000000    0.0000000000
C     17.7625000000   38.1493000000    0.0000000000
C     17.0520000000   39.3799000000    0.0000000000
C      0.0000000000    2.4612000000    0.0000000000
C      0.7105000000    3.6919000000    0.0000000000
C      0.0000000000    4.9225000000    0.0000000000
C      2.1315000000    6.1531000000    0.0000000000
C      0.7105000000    6.1531000000    0.0000000000
C      2.8420000000    7.3837000000    0.0000000000
C      2.1315000000    8.6144000000    0.0000000000
C      4.2630000000    9.8450000000    0.0000000000
C      2.8420000000    9.8450000000    0.0000000000
C      4.9735000000   11.0756000000    0.0000000000
C      4.2630000000   12.3062000000    0.0000000000
C      6.3945000000   13.5368000000    0.0000000000
C      4.9735000000   13.5368000000    0.0000000000
C      7.1050000000   14.7675000000    0.0000000000
C      6.3945000000   15.9981000000    0.0000000000
C      8.5260000000   17.2287000000    0.0000000000
C      7.1050000000   17.2287000000    0.0000000000
C      9.2365000000   18.4593000000    0.0000000000
C      8.5260000000   19.6900000000    0.0000000000
C     10.6575000000   20.9206000000    0.0000000000
C      9.2365000000   20.9206000000    0.0000000000
C     11.3680000000   22.1512000000    0.0000000000
C     10.6575000000   23.3818000000    0.0000000000
C     12.7890000000   24.6124000000    0.0000000000
C     11.3680000000   24.6124000000    0.0000000000
C     13.4995000000   25.8431000000    0.0000000000
C     12.7890000000   27.0737000000    0.0000000000
C     14.9205000000   28.3043000000    0.0000000000
C     13.4995000000   28.3043000000    0.0000000000
C     15.6310000000   29.5349000000    0.0000000000
C     14.9205000000   30.7656000000    0.0000000000
C     17.0520000000   31.9962000000    0.0000000000
C     15.6310000000   31.9962000000    0.0000000000
C     17.7625000000   33.2268000000    0.0000000000
C     17.0520000000   34.4574000000    0.0000000000
C     19.1835000000   35.6880000000    0.0000000000
C     17.7625000000   35.6880000000    0.0000000000
C     19.8940000000   36.9187000000    0.0000000000
C     19.1835000000   38.1493000000    0.0000000000
C     21.3150000000   39.3799000000    0.0000000000
C     19.8940000000   39.3799000000    0.0000000000
C      0.0000000000    0.0000000000    0.0000000000
C      2.1315000000    1.2306000000    0.0000000000
C      0.7105000000    1.2306000000    0.0000000000
C      2.8420000000    2.4612000000    0.0000000000
C      2.1315000000    3.6919000000    0.0000000000
C      4.2630000000    4.9225000000    0.0000000000
C      2.8420000000    4.9225000000    0.0000000000
C      4.9735000000    6.1531000000    0.0000000000
C      4.2630000000    7.3837000000    0.0000000000
C      6.3945000000    8.6144000000    0.0000000000
C      4.9735000000    8.6144000000    0.0000000000
C      7.1050000000    9.8450000000    0.0000000000
C      6.3945000000   11.0756000000    0.0000000000
C      8.5260000000   12.3062000000    0.0000000000
C      7.1050000000   12.3062000000    0.0000000000
C      9.2365000000   13.5368000000    0.0000000000
C      8.5260000000   14.7675000000    0.0000000000
C     10.6575000000   15.9981000000    0.0000000000
C      9.2365000000   15.9981000000    0.0000000000
C     11.3680000000   17.2287000000    0.0000000000
C     10.6575000000   18.4593000000    0.0000000000
C     12.7890000000   19.6900000000    0.0000000000
C     11.3680000000   19.6900000000    0.0000000000
C     13.4995000000   20.9206000000    0.0000000000
C     12.7890000000   22.1512000000    0.0000000000
C     14.9205000000   23.3818000000    0.0000000000
C     13.4995000000   23.3818000000    0.0000000000
C     15.6310000000   24.6124000000    0.0000000000
C     14.9205000000   25.8431000000    0.0000000000
C     17.0520000000   27.0737000000    0.0000000000
C     15.6310000000   27.0737000000    0.0000000000
C     17.7625000000   28.3043000000    0.0000000000
C     17.0520000000   29.5349000000    0.0000000000
C     19.1835000000   30.7656000000    0.0000000000
C     17.7625000000   30.7656000000    0.0000000000
C     19.8940000000   31.9962000000    0.0000000000
C     19.1835000000   33.2268000000    0.0000000000
C     21.3150000000   34.4574000000    0.0000000000
C     19.8940000000   34.4574000000    0.0000000000
C     22.0255000000   35.6880000000    0.0000000000
C     21.3150000000   36.9187000000    0.0000000000
C     23.4465000000   38.1493000000    0.0000000000
C     22.0255000000   38.1493000000    0.0000000000
C     24.1570000000   39.3799000000    0.0000000000
C      4.2630000000    0.0000000000    0.0000000000
C      2.8420000000    0.0000000000    0.0000000000
C      4.9735000000    1.2306000000    0.0000000000
C      4.2630000000    2.4612000000    0.0000000000
C      6.3945000000    3.6919000000    0.0000000000
C      4.9735000000    3.6919000000    0.0000000000
C      7.1050000000    4.9225000000    0.0000000000
C      6.3945000000    6.1531000000    0.0000000000
C      8.5260000000    7.3837000000    0.0000000000
C      7.1050000000    7.3837000000    0.0000000000
C      9.2365000000    8.6144000000    0.0000000000
C      8.5260000000    9.8450000000    0.0000000000
C     10.6575000000   11.0756000000    0.0000000000
C      9.2365000000   11.0756000000    0.0000000000
C     11.3680000000   12.3062000000    0.0000000000
C     10.6575000000   13.5368000000    0.0000000000
C     12.7890000000   14.7675000000    0.0000000000
C     11.3680000000   14.7675000000    0.0000000000
C     13.4995000000   15.9981000000    0.0000000000
C     12.7890000000   17.2287000000    0.0000000000
C     14.9205000000   18.4593000000    0.0000000000
C     13.4995000000   18.4593000000    0.0000000000
C     15.6310000000   19.6900000000    0.0000000000
C     14.9205000000   20.9206000000    0.0000000000
C     17.0520000000   22.1512000000    0.0000000000
C     15.6310000000   22.1512000000    0.0000000000
C     17.7625000000   23.3818000000    0.0000000000
C     17.0520000000   24.6124000000    0.0000000000
C     19.1835000000   25.8431000000    0.0000000000
C     17.7625000000   25.8431000000    0.0000000000
C     19.8940000000   27.0737000000    0.0000000000
C     19.1835000000   28.3043000000    0.0000000000
C     21.3150000000   29.5349000000    0.0000000000
C     19.8940000000   29.5349000000    0.0000000000
C     22.0255000000   30.7656000000    0.0000000000
C     21.3150000000   31.9962000000    0.0000000000
C     23.4465000000   33.2268000000    0.0000000000
C     22.0255000000   33.2268000000    0.0000000000
C     24.1570000000   34.4574000000    0.0000000000
C     23.4465000000   35.6880000000    0.0000000000
C     25.5780000000   36.9187000000    0.0000000000
C     24.1570000000   36.9187000000    0.0000000000
C     26.2885000000   38.1493000000    0.0000000000
C     25.5780000000   39.3799000000    0.0000000000
C      7.1050000000    0.0000000000    0.0000000000
C      6.3945000000    1.2306000000    0.0000000000
C      8.5260000000    2.4612000000    0.0000000000
C      7.1050000000    2.4612000000    0.0000000000
C      9.2365000000    3.6919000000    0.0000000000
C      8.5260000000    4.9225000000    0.0000000000
C     10.6575000000    6.1531000000    0.0000000000
C      9.2365000000    6.1531000000    0.0000000000
C     11.3680000000    7.3837000000    0.0000000000
C     10.6575000000    8.6144000000    0.0000000000
C     12.7890000000    9.8450000000    0.0000000000
C     11.3680000000    9.8450000000    0.0000000000
C     13.4995000000   11.0756000000    0.0000000000
C     12.7890000000   12.3062000000    0.0000000000
C     14.9205000000   13.5368000000    0.0000000000
C     13.4995000000   13.5368000000    0.0000000000
C     15.6310000000   14.7675000000    0.0000000000
C     14.9205000000   15.9981000000    0.0000000000
C     17.0520000000   17.2287000000    0.0000000000
C     15.6310000000   17.2287000000    0.0000000000
C     17.7625000000   18.4593000000    0.0000000000
C     17.0520000000   19.6900000000    0.0000000000
C     19.1835000000   20.9206000000    0.0000000000
C     17.7625000000   20.9206000000    0.0000000000
C     19.8940000000   22.1512000000    0.0000000000
C     19.1835000000   23.3818000000    0.0000000000
C     21.3150000000   24.6124000000    0.0000000000
C     19.8940000000   24.6124000000    0.0000000000
C     22.0255000000   25.8431000000    0.0000000000
C     21.3150000000   27.0737000000    0.0000000000
C     23.4465000000   28.3043000000    0.0000000000
C     22.0255000000   28.3043000000    0.0000000000
C     24.1570000000   29.5349000000    0.0000000000
C     23.4465000000   30.7656000000    0.0000000000
C     25.5780000000   31.9962000000    0.0000000000
C     24.1570000000   31.9962000000    0.0000000000
C     26.2885000000   33.2268000000    0.0000000000
C     25.5780000000   34.4574000000    0.0000000000
C     27.7095000000   35.6880000000    0.0000000000
C     26.2885000000   35.6880000000    0.0000000000
C     28.4200000000   36.9187000000    0.0000000000
C     27.7095000000   38.1493000000    0.0000000000
C     29.8410000000   39.3799000000    0.0000000000
C     28.4200000000   39.3799000000    0.0000000000
C      8.5260000000    0.0000000000    0.0000000000
C     10.6575000000    1.2306000000    0.0000000000
C      9.2365000000    1.2306000000    0.0000000000
C     11.3680000000    2.4612000000    0.0000000000
C     10.6575000000    3.6919000000    0.0000000000
C     12.7890000000    4.9225000000    0.0000000000
C     11.3680000000    4.9225000000    0.0000000000
C     13.4995000000    6.1531000000    0.0000000000
C     12.7890000000    7.3837000000    0.0000000000
C     14.9205000000    8.6144000000    0.0000000000
C     13.4995000000    8.6144000000    0.0000000000
C     15.6310000000    9.8450000000    0.0000000000
C     14.9205000000   11.0756000000    0.0000000000
C     17.0520000000   12.3062000000    0.0000000000
C     15.6310000000   12.3062000000    0.0000000000
C     17.7625000000   13.5368000000    0.0000000000
C     17.0520000000   14.7675000000    0.0000000000
C     19.1835000000   15.9981000000    0.0000000000
C     17.7625000000   15.9981000000    0.0000000000
C     19.8940000000   17.2287000000    0.0000000000
C     19.1835000000   18.4593000000    0.0000000000
C     21.3150000000   19.6900000000    0.0000000000
C     19.8940000000   19.6900000000    0.0000000000
C     22.0255000000   20.9206000000    0.0000000000
C     21.3150000000   22.1512000000    0.0000000000
C     23.4465000000   23.3818000000    0.0000000000
C     22.0255000000   23.3818000000    0.0000000000
C     24.1570000000   24.6124000000    0.0000000000
C     23.4465000000   25.8431000000    0.0000000000
C     25.5780000000   27.0737000000    0.0000000000
C     24.1570000000   27.0737000000    0.0000000000
C     26.2885000000   28.3043000000    0.0000000000
C     25.5780000000   29.5349000000    0.0000000000
C     27.7095000000   30.7656000000    0.0000000000
C     26.2885000000   30.7656000000    0.0000000000
C     28.4200000000   31.9962000000    0.0000000000
C     27.7095000000   33.2268000000    0.0000000000
C     29.8410000000   34.4574000000    0.0000000000
C     28.4200000000   34.4574000000    0.0000000000
C     30.5515000000   35.6880000000    0.0000000000
C     29.8410000000   36.9187000000    0.0000000000
C     31.9725000000   38.1493000000    0.0000000000
C     30.5515000000   38.1493000000    0.0000000000
C     32.6830000000   39.3799000000    0.0000000000
C     12.7890000000    0.0000000000    0.0000000000
C     11.3680000000    0.0000000000    0.0000000000
C     13.4995000000    1.2306000000    0.0000000000
C     12.7890000000    2.4612000000    0.0000000000
C     14.9205000000    3.6919000000    0.0000000000
C     13.4995000000    3.6919000000    0.0000000000
C     15.6310000000    4.9225000000    0.0000000000
C     14.9205000000    6.1531000000    0.0000000000
C     17.0520000000    7.3837000000    0.0000000000
C     15.6310000000    7.3837000000    0.0000000000
C     17.7625000000    8.6144000000    0.0000000000
C     17.0520000000    9.8450000000    0.0000000000
C     19.1835000000   11.0756000000    0.0000000000
C     17.7625000000   11.0756000000    0.0000000000
C     19.8940000000   12.3062000000    0.0000000000
C     19.1835000000   13.5368000000    0.0000000000
C     21.3150000000   14.7675000000    0.0000000000
C     19.8940000000   14.7675000000    0.0000000000
C     22.0255000000   15.9981000000    0.0000000000
C     21.3150000000   17.2287000000    0.0000000000
C     23.4465000000   18.4593000000    0.0000000000
C     22.0255000000   18.4593000000    0.0000000000
C     24.1570000000   19.6900000000    0.0000000000
C     23.4465000000   20.9206000000    0.0000000000
C     25.5780000000   22.1512000000    0.0000000000
C     24.1570000000   22.1512000000    0.0000000000
C     26.2885000000   23.3818000000    0.0000000000
C     25.5780000000   24.6124000000    0.0000000000
C     27.7095000000   25.8431000000    0.0000000000
C     26.2885000000   25.8431000000    0.0000000000
C     28.4200000000   27.0737000000    0.0000000000
C     27.7095000000   28.3043000000    0.0000000000
C     29.8410000000   29.5349000000    0.0000000000
C     28.4200000000   29.5349000000    0.0000000000
C     30.5515000000   30.7656000000    0.0000000000
C     29.8410000000   31.9962000000    0.0000000000
C     31.9725000000   33.2268000000    0.0000000000
C     30.5515000000   33.2268000000    0.0000000000
C     32.6830000000   34.4574000000    0.0000000000
C     31.9725000000   35.6880000000    0.0000000000
C     34.1040000000   36.9187000000    0.0000000000
C     32.6830000000   36.9187000000    0.0000000000
C     34.8145000000   38.1493000000    0.0000000000
C     34.1040000000   39.3799000000    0.0000000000
C     15.6310000000    0.0000000000    0.0000000000
C     14.9205000000    1.2306000000    0.0000000000
C     17.0520000000    2.4612000000    0.0000000000
C     15.6310000000    2.4612000000    0.0000000000
C     17.7625000000    3.6919000000    0.0000000000
C     17.0520000000    4.9225000000    0.0000000000
C     19.1835000000    6.1531000000    0.0000000000
C     17.7625000000    6.1531000000    0.0000000000
C     19.8940000000    7.3837000000    0.0000000000
C     19.1835000000    8.6144000000    0.0000000000
C     21.3150000000    9.8450000000    0.0000000000
C     19.8940000000    9.8450000000    0.0000000000
C     22.0255000000   11.0756000000    0.0000000000
C     21.3150000000   12.3062000000    0.0000000000
C     23.4465000000   13.5368000000    0.0000000000
C     22.0255000000   13.5368000000    0.0000000000
C     24.1570000000   14.7675000000    0.0000000000
C     23.4465000000   15.9981000000    0.0000000000
C     25.5780000000   17.2287000000    0.0000000000
C     24.1570000000   17.2287000000    0.0000000000
C     26.2885000000   18.4593000000    0.0000000000
C     25.5780000000   19.6900000000    0.0000000000
C     27.7095000000   20.9206000000    0.0000000000
C     26.2885000000   20.9206000000    0.0000000000
C     28.4200000000   22.1512000000    0.0000000000
C     27.7095000000   23.3818000000    0.0000000000
C     29.8410000000   24.6124000000    0.0000000000
C     28.4200000000   24.6124000000    0.0000000000
C     30.5515000000   25.8431000000    0.0000000000
C     29.8410000000   27.0737000000    0.0000000000
C     31.9725000000   28.3043000000    0.0000000000
C     30.5515000000   28.3043000000    0.0000000000
C     32.6830000000   29.5349000000    0.0000000000
C     31.9725000000   30.7656000000    0.0000000000
C     34.1040000000   31.9962000000    0.0000000000
C     32.6830000000   31.9962000000    0.0000000000
C     34.8145000000   33.2268000000    0.0000000000
C     34.1040000000   34.4574000000    0.0000000000
C     36.2355000000   35.6880000000    0.0000000000
C     34.8145000000   35.6880000000    0.0000000000
C     36.9460000000   36.9187000000    0.0000000000
C     36.2355000000   38.1493000000    0.0000000000
C     38.3670000000   39.3799000000    0.0000000000
C     36.9460000000   39.3799000000    0.0000000000
C     17.0520000000    0.0000000000    0.0000000000
C     19.1835000000    1.2306000000    0.0000000000
C     17.7625000000    1.2306000000    0.0000000000
C     19.8940000000    2.4612000000    0.0000000000
C     19.1835000000    3.6919000000    0.0000000000
C     21.3150000000    4.9225000000    0.0000000000
C     19.8940000000    4.9225000000    0.0000000000
C     22.0255000000    6.1531000000    0.0000000000
C     21.3150000000    7.3837000000    0.0000000000
C     23.4465000000    8.6144000000    0.0000000000
C     22.0255000000    8.6144000000    0.0000000000
C     24.1570000000    9.8450000000    0.0000000000
C     23.4465000000   11.0756000000    0.0000000000
C     25.5780000000   12.3062000000    0.0000000000
C     24.1570000000   12.3062000000    0.0000000000
C     26.2885000000   13.5368000000    0.0000000000
C     25.5780000000   14.7675000000    0.0000000000
C     27.7095000000   15.9981000000    0.0000000000
C     26.2885000000   15.9981000000    0.0000000000
C     28.4200000000   17.2287000000    0.0000000000
C     27.7095000000   18.4593000000    0.0000000000
C     29.8410000000   19.6900000000    0.0000000000
C     28.4200000000   19.6900000000    0.0000000000
C     30.5515000000   20.9206000000    0.0000000000
C     29.8410000000   22.1512000000    0.0000000000
C     31.9725000000   23.3818000000    0.0000000000
C     30.5515000000   23.3818000000    0.0000000000
C     32.6830000000   24.6124000000    0.0000000000
C     31.9725000000   25.8431000000    0.0000000000
C     34.1040000000   27.0737000000    0.0000000000
C     32.6830000000   27.0737000000    0.0000000000
C     34.8145000000   28.3043000000    0.0000000000
C     34.1040000000   29.5349000000    0.0000000000
C     36.2355000000   30.7656000000    0.0000000000
C     34.8145000000   30.7656000000    0.0000000000
C     36.9460000000   31.9962000000    0.0000000000
C     36.2355000000   33.2268000000    0.0000000000
C     38.3670000000   34.4574000000    0.0000000000
C     36.9460000000   34.4574000000    0.0000000000
C     39.0775000000   35.6880000000    0.0000000000
C     38.3670000000   36.9187000000    0.0000000000
C     40.4985000000   38.1493000000    0.0000000000
C     39.0775000000   38.1493000000    0.0000000000
C     41.2090000000   39.3799000000    0.0000000000
C     21.3150000000    0.0000000000    0.0000000000
C     19.8940000000    0.0000000000    0.0000000000
C     22.0255000000    1.2306000000    0.0000000000
C     21.3150000000    2.4612000000    0.0000000000
C     23.4465000000    3.6919000000    0.0000000000
C     22.0255000000    3.6919000000    0.0000000000
C     24.1570000000    4.9225000000    0.0000000000
C     23.4465000000    6.1531000000    0.0000000000
C     25.5780000000    7.3837000000    0.0000000000
C     24.1570000000    7.3837000000    0.0000000000
C     26.2885000000    8.6144000000    0.0000000000
C     25.5780000000    9.8450000000    0.0000000000
C     27.7095000000   11.0756000000    0.0000000000
C     26.2885000000   11.0756000000    0.0000000000
C     28.4200000000   12.3062000000    0.0000000000
C     27.7095000000   13.5368000000    0.0000000000
C     29.8410000000   14.7675000000    0.0000000000
C     28.4200000000   14.7675000000    0.0000000000
C     30.5515000000   15.9981000000    0.0000000000
C     29.8410000000   17.2287000000    0.0000000000
C     31.9725000000   18.4593000000    0.0000000000
C     30.5515000000   18.4593000000    0.0000000000
C     32.6830000000   19.6900000000    0.0000000000
C     31.9725000000   20.9206000000    0.0000000000
C     34.1040000000   22.1512000000    0.0000000000
C     32.6830000000   22.1512000000    0.0000000000
C     34.8145000000   23.3818000000    0.0000000000
C     34.1040000000   24.6124000000    0.0000000000
C     36.2355000000   25.8431000000    0.0000000000
C     34.8145000000   25.8431000000    0.0000000000
C     36.9460000000   27.0737000000    0.0000000000
C     36.2355000000   28.3043000000    0.0000000000
C     38.3670000000   29.5349000000    0.0000000000
C     36.9460000000   29.5349000000    0.0000000000
C     39.0775000000   30.7656000000    0.0000000000
C     38.3670000000   31.9962000000    0.0000000000
C     40.4985000000   33.2268000000    0.0000000000
C     39.0775000000   33.2268000000    0.0000000000
C     41.2090000000   34.4574000000    0.0000000000
C     40.4985000000   35.6880000000    0.0000000000
C     39.0775000000    3.6919000000    0.0000000000
C     41.2090000000   36.9187000000    0.0000000000
C     41.2090000000    4.9225000000    0.0000000000
C     24.1570000000    0.0000000000    0.0000000000
C     23.4465000000    1.2306000000    0.0000000000
C     25.5780000000    2.4612000000    0.0000000000
C     24.1570000000    2.4612000000    0.0000000000
C     26.2885000000    3.6919000000    0.0000000000
C     25.5780000000    4.9225000000    0.0000000000
C     27.7095000000    6.1531000000    0.0000000000
C     26.2885000000    6.1531000000    0.0000000000
C     28.4200000000    7.3837000000    0.0000000000
C     27.7095000000    8.6144000000    0.0000000000
C     29.8410000000    9.8450000000    0.0000000000
C     28.4200000000    9.8450000000    0.0000000000
C     30.5515000000   11.0756000000    0.0000000000
C     29.8410000000   12.3062000000    0.0000000000
C     31.9725000000   13.5368000000    0.0000000000
C     30.5515000000   13.5368000000    0.0000000000
C     32.6830000000   14.7675000000    0.0000000000
C     31.9725000000   15.9981000000    0.0000000000
C     34.1040000000   17.2287000000    0.0000000000
C     32.6830000000   17.2287000000    0.0000000000
C     34.8145000000   18.4593000000    0.0000000000
C     34.1040000000   19.6900000000    0.0000000000
C     36.2355000000   20.9206000000    0.0000000000
C     34.8145000000   20.9206000000    0.0000000000
C     36.9460000000   22.1512000000    0.0000000000
C     36.2355000000   23.3818000000    0.0000000000
C     38.3670000000   24.6124000000    0.0000000000
C     36.9460000000   24.6124000000    0.0000000000
C     39.0775000000   25.8431000000    0.0000000000
C     38.3670000000   27.0737000000    0.0000000000
C     40.4985000000   28.3043000000    0.0000000000
C     39.0775000000   28.3043000000    0.0000000000
C     41.2090000000   29.5349000000    0.0000000000
C     40.4985000000   30.7656000000    0.0000000000
C     41.2090000000   31.9962000000    0.0000000000
C     40.4985000000    6.1531000000    0.0000000000
C     25.5780000000    0.0000000000    0.0000000000
C     27.7095000000    1.2306000000    0.0000000000
C     26.2885000000    1.2306000000    0.0000000000
C     28.4200000000    2.4612000000    0.0000000000
C     27.7095000000    3.6919000000    0.0000000000
C     29.8410000000    4.9225000000    0.0000000000
C     28.4200000000    4.9225000000    0.0000000000
C     30.5515000000    6.1531000000    0.0000000000
C     29.8410000000    7.3837000000    0.0000000000
C     31.9725000000    8.6144000000    0.0000000000
C     30.5515000000    8.6144000000    0.0000000000
C     32.6830000000    9.8450000000    0.0000000000
C     31.9725000000   11.0756000000    0.0000000000
C     34.1040000000   12.3062000000    0.0000000000
C     32.6830000000   12.3062000000    0.0000000000
C     34.8145000000   13.5368000000    0.0000000000
C     34.1040000000   14.7675000000    0.0000000000
C     36.2355000000   15.9981000000    0.0000000000
C     34.8145000000   15.9981000000    0.0000000000
C     36.9460000000   17.2287000000    0.0000000000
C     36.2355000000   18.4593000000    0.0000000000
C     38.3670000000   19.6900000000    0.0000000000
C     36.9460000000   19.6900000000    0.0000000000
C     39.0775000000   20.9206000000    0.0000000000
C     38.3670000000   22.1512000000    0.0000000000
C     40.4985000000   23.3818000000    0.0000000000
C     39.0775000000   23.3818000000    0.0000000000
C     41.2090000000   24.6124000000    0.0000000000
C     40.4985000000   25.8431000000    0.0000000000
C     41.2090000000   27.0737000000    0.0000000000
C     29.8410000000    0.0000000000    0.0000000000
C     28.4200000000    0.0000000000    0.0000000000
C     30.5515000000    1.2306000000    0.0000000000
C     29.8410000000    2.4612000000    0.0000000000
C     31.9725000000    3.6919000000    0.0000000000
C     30.5515000000    3.6919000000    0.0000000000
C     32.6830000000    4.9225000000    0.0000000000
C     31.9725000000    6.1531000000    0.0000000000
C     34.1040000000    7.3837000000    0.0000000000
C     32.6830000000    7.3837000000    0.0000000000
C     34.8145000000    8.6144000000    0.0000000000
C     34.1040000000    9.8450000000    0.0000000000
C     36.2355000000   11.0756000000    0.0000000000
C     34.8145000000   11.0756000000    0.0000000000
C     36.9460000000   12.3062000000    0.0000000000
C     36.2355000000   13.5368000000    0.0000000000
C     38.3670000000   14.7675000000    0.0000000000
C     36.9460000000   14.7675000000    0.0000000000
C     39.0775000000   15.9981000000    0.0000000000
C     38.3670000000   17.2287000000    0.0000000000
C     40.4985000000   18.4593000000    0.0000000000
C     39.0775000000   18.4593000000    0.0000000000
C     41.2090000000   19.6900000000    0.0000000000
C     40.4985000000   20.9206000000    0.0000000000
C     41.2090000000    7.3837000000    0.0000000000
C     41.2090000000   22.1512000000    0.0000000000
C     41.2090000000    0.0000000000    0.0000000000
C     32.6830000000    0.0000000000    0.0000000000
C     31.9725000000    1.2306000000    0.0000000000
C     34.1040000000    2.4612000000    0.0000000000
C     32.6830000000    2.4612000000    0.0000000000
C     34.8145000000    3.6919000000    0.0000000000
C     34.1040000000    4.9225000000    0.0000000000
C     36.2355000000    6.1531000000    0.0000000000
C     34.8145000000    6.1531000000    0.0000000000
C     36.9460000000    7.3837000000    0.0000000000
C     36.2355000000    8.6144000000    0.0000000000
C     38.3670000000    9.8450000000    0.0000000000
C     36.9460000000    9.8450000000    0.0000000000
C     39.0775000000   11.0756000000    0.0000000000
C     38.3670000000   12.3062000000    0.0000000000
C     40.4985000000   13.5368000000    0.0000000000
C     39.0775000000   13.5368000000    0.0000000000
C     41.2090000000   14.7675000000    0.0000000000
C     40.4985000000   15.9981000000    0.0000000000
C     41.2090000000   17.2287000000    0.0000000000
C     34.1040000000    0.0000000000    0.0000000000
C     36.2355000000    1.2306000000    0.0000000000
C     34.8145000000    1.2306000000    0.0000000000
C     36.9460000000    2.4612000000    0.0000000000
C     36.2355000000    3.6919000000    0.0000000000
C     38.3670000000    4.9225000000    0.0000000000
C     36.9460000000    4.9225000000    0.0000000000
C     39.0775000000    6.1531000000    0.0000000000
C     38.3670000000    7.3837000000    0.0000000000
C     40.4985000000    8.6144000000    0.0000000000
C     39.0775000000    8.6144000000    0.0000000000
C     41.2090000000    9.8450000000    0.0000000000
C     40.4985000000   11.0756000000    0.0000000000
C     40.4985000000    1.2306000000    0.0000000000
C     41.2090000000   12.3062000000    0.0000000000
C     41.2090000000    2.4612000000    0.0000000000
C     38.3670000000    0.0000000000    0.0000000000
C     36.9460000000    0.0000000000    0.0000000000
C     39.0775000000    1.2306000000    0.0000000000
C     38.3670000000    2.4612000000    0.0000000000
C     40.4985000000    3.6919000000    0.0000000000
