378
#
C	3.9172	0.0000	0.0000
C	3.7255	1.2105	2.1315
C	3.9172	0.0000	1.4210
C	3.7255	1.2105	3.5525
C	3.9172	0.0000	4.2630
C	3.7255	1.2105	6.3945
C	3.9172	0.0000	5.6840
C	3.7255	1.2105	7.8155
C	3.9172	0.0000	8.5260
C	3.7255	1.2105	10.6575
C	3.9172	0.0000	9.9470
C	3.7255	1.2105	12.0785
C	3.9172	0.0000	12.7890
C	3.7255	1.2105	14.9205
C	3.9172	0.0000	14.2100
C	3.7255	1.2105	16.3415
C	3.9172	0.0000	17.0520
C	3.7255	1.2105	19.1835
C	3.9172	0.0000	18.4730
C	3.7255	1.2105	20.6045
C	3.9172	0.0000	21.3150
C	3.7255	1.2105	23.4465
C	3.9172	0.0000	22.7360
C	3.7255	1.2105	24.8675
C	3.9172	0.0000	25.5780
C	3.7255	1.2105	27.7095
C	3.9172	0.0000	26.9990
C	3.7255	1.2105	29.1305
C	3.9172	0.0000	29.8410
C	3.7255	1.2105	31.9725
C	3.9172	0.0000	31.2620
C	3.7255	1.2105	33.3935
C	3.9172	0.0000	34.1040
C	3.7255	1.2105	36.2355
C	3.9172	0.0000	35.5250
C	3.7255	1.2105	37.6565
C	3.9172	0.0000	38.3670
C	3.9172	0.0000	39.7880
C	3.1691	2.3025	0.0000
C	2.3025	3.1691	2.1315
C	3.1691	2.3025	1.4210
C	2.3025	3.1691	3.5525
C	3.1691	2.3025	4.2630
C	2.3025	3.1691	6.3945
C	3.1691	2.3025	5.6840
C	2.3025	3.1691	7.8155
C	3.1691	2.3025	8.5260
C	2.3025	3.1691	10.6575
C	3.1691	2.3025	9.9470
C	2.3025	3.1691	12.0785
C	3.1691	2.3025	12.7890
C	2.3025	3.1691	14.9205
C	3.1691	2.3025	14.2100
C	2.3025	3.1691	16.3415
C	3.1691	2.3025	17.0520
C	2.3025	3.1691	19.1835
C	3.1691	2.3025	18.4730
C	2.3025	3.1691	20.6045
C	3.1691	2.3025	21.3150
C	2.3025	3.1691	23.4465
C	3.1691	2.3025	22.7360
C	2.3025	3.1691	24.8675
C	3.1691	2.3025	25.5780
C	2.3025	3.1691	27.7095
C	3.1691	2.3025	26.9990
C	2.3025	3.1691	29.1305
C	3.1691	2.3025	29.8410
C	2.3025	3.1691	31.9725
C	3.1691	2.3025	31.2620
C	2.3025	3.1691	33.3935
C	3.1691	2.3025	34.1040
C	2.3025	3.1691	36.2355
C	3.1691	2.3025	35.5250
C	2.3025	3.1691	37.6565
C	3.1691	2.3025	38.3670
C	3.1691	2.3025	39.7880
C	1.2105	3.7255	0.0000
C	0.0000	3.9172	2.1315
C	1.2105	3.7255	1.4210
C	0.0000	3.9172	3.5525
C	1.2105	3.7255	4.2630
C	0.0000	3.9172	6.3945
C	1.2105	3.7255	5.6840
C	0.0000	3.9172	7.8155
C	1.2105	3.7255	8.5260
C	0.0000	3.9172	10.6575
C	1.2105	3.7255	9.9470
C	0.0000	3.9172	12.0785
C	0.0000	3.9172	14.9205
C	1.2105	3.7255	14.2100
C	0.0000	3.9172	16.3415
C	1.2105	3.7255	17.0520
C	0.0000	3.9172	19.1835
C	1.2105	3.7255	18.4730
C	0.0000	3.9172	20.6045
C	1.2105	3.7255	21.3150
C	0.0000	3.9172	23.4465
C	1.2105	3.7255	22.7360
C	0.0000	3.9172	24.8675
C	1.2105	3.7255	25.5780
C	0.0000	3.9172	27.7095
C	1.2105	3.7255	26.9990
C	0.0000	3.9172	29.1305
C	1.2105	3.7255	29.8410
C	0.0000	3.9172	31.9725
C	1.2105	3.7255	31.2620
C	0.0000	3.9172	33.3935
C	1.2105	3.7255	34.1040
C	0.0000	3.9172	36.2355
C	1.2105	3.7255	35.5250
C	0.0000	3.9172	37.6565
C	1.2105	3.7255	38.3670
C	1.2105	3.7255	39.7880
C	-1.2105	3.7255	0.0000
C	-2.3025	3.1691	2.1315
C	-1.2105	3.7255	1.4210
C	-2.3025	3.1691	3.5525
C	-1.2105	3.7255	4.2630
C	-2.3025	3.1691	6.3945
C	-1.2105	3.7255	5.6840
C	-2.3025	3.1691	7.8155
C	-1.2105	3.7255	8.5260
C	-2.3025	3.1691	10.6575
C	-1.2105	3.7255	9.9470
C	-2.3025	3.1691	12.0785
C	-1.2105	3.7255	12.7890
C	-2.3025	3.1691	14.9205
C	-1.2105	3.7255	14.2100
C	-2.3025	3.1691	16.3415
C	-1.2105	3.7255	17.0520
C	-2.3025	3.1691	19.1835
C	-1.2105	3.7255	18.4730
C	-2.3025	3.1691	20.6045
C	-1.2105	3.7255	21.3150
C	-2.3025	3.1691	23.4465
C	-1.2105	3.7255	22.7360
C	-2.3025	3.1691	24.8675
C	-1.2105	3.7255	25.5780
C	-2.3025	3.1691	27.7095
C	-1.2105	3.7255	26.9990
C	-2.3025	3.1691	29.1305
C	-1.2105	3.7255	29.8410
C	-2.3025	3.1691	31.9725
C	-1.2105	3.7255	31.2620
C	-2.3025	3.1691	33.3935
C	-1.2105	3.7255	34.1040
C	-2.3025	3.1691	36.2355
C	-1.2105	3.7255	35.5250
C	-2.3025	3.1691	37.6565
C	-1.2105	3.7255	38.3670
C	-1.2105	3.7255	39.7880
C	-3.1691	2.3025	0.0000
C	-3.7255	1.2105	2.1315
C	-3.1691	2.3025	1.4210
C	-3.7255	1.2105	3.5525
C	-3.1691	2.3025	4.2630
C	-3.7255	1.2105	6.3945
C	-3.1691	2.3025	5.6840
C	-3.7255	1.2105	7.8155
C	-3.1691	2.3025	8.5260
C	-3.7255	1.2105	10.6575
C	-3.1691	2.3025	9.9470
C	-3.7255	1.2105	12.0785
C	-3.1691	2.3025	12.7890
C	-3.7255	1.2105	14.9205
C	-3.1691	2.3025	14.2100
C	-3.7255	1.2105	16.3415
C	-3.1691	2.3025	17.0520
C	-3.7255	1.2105	19.1835
C	-3.1691	2.3025	18.4730
C	-3.7255	1.2105	20.6045
C	-3.1691	2.3025	21.3150
C	-3.7255	1.2105	23.4465
C	-3.1691	2.3025	22.7360
C	-3.7255	1.2105	24.8675
C	-3.1691	2.3025	25.5780
C	-3.7255	1.2105	27.7095
C	-3.1691	2.3025	26.9990
C	-3.7255	1.2105	29.1305
C	-3.1691	2.3025	29.8410
C	-3.7255	1.2105	31.9725
C	-3.1691	2.3025	31.2620
C	-3.7255	1.2105	33.3935
C	-3.1691	2.3025	34.1040
C	-3.7255	1.2105	36.2355
C	-3.1691	2.3025	35.5250
C	-3.7255	1.2105	37.6565
C	-3.1691	2.3025	38.3670
C	-3.1691	2.3025	39.7880
C	-3.9172	0.0000	0.0000
C	-3.7255	-1.2105	2.1315
C	-3.9172	0.0000	1.4210
C	-3.7255	-1.2105	3.5525
C	-3.9172	0.0000	4.2630
C	-3.7255	-1.2105	6.3945
C	-3.9172	0.0000	5.6840
C	-3.7255	-1.2105	7.8155
C	-3.9172	0.0000	8.5260
C	-3.7255	-1.2105	10.6575
C	-3.9172	0.0000	9.9470
C	-3.7255	-1.2105	12.0785
C	-3.9172	0.0000	12.7890
C	-3.7255	-1.2105	14.9205
C	-3.9172	0.0000	14.2100
C	-3.7255	-1.2105	16.3415
C	-3.9172	0.0000	17.0520
C	-3.7255	-1.2105	19.1835
C	-3.9172	0.0000	18.4730
C	-3.7255	-1.2105	20.6045
C	-3.9172	0.0000	21.3150
C	-3.7255	-1.2105	23.4465
C	-3.9172	0.0000	22.7360
C	-3.9172	0.0000	25.5780
C	-3.7255	-1.2105	27.7095
C	-3.9172	0.0000	26.9990
C	-3.7255	-1.2105	29.1305
C	-3.9172	0.0000	29.8410
C	-3.7255	-1.2105	31.9725
C	-3.9172	0.0000	31.2620
C	-3.7255	-1.2105	33.3935
C	-3.9172	0.0000	34.1040
C	-3.7255	-1.2105	36.2355
C	-3.9172	0.0000	35.5250
C	-3.7255	-1.2105	37.6565
C	-3.9172	0.0000	38.3670
C	-3.9172	0.0000	39.7880
C	-3.1691	-2.3025	0.0000
C	-2.3025	-3.1691	2.1315
C	-3.1691	-2.3025	1.4210
C	-2.3025	-3.1691	3.5525
C	-3.1691	-2.3025	4.2630
C	-2.3025	-3.1691	6.3945
C	-3.1691	-2.3025	5.6840
C	-2.3025	-3.1691	7.8155
C	-3.1691	-2.3025	8.5260
C	-2.3025	-3.1691	10.6575
C	-3.1691	-2.3025	9.9470
C	-2.3025	-3.1691	12.0785
C	-3.1691	-2.3025	12.7890
C	-2.3025	-3.1691	14.9205
C	-3.1691	-2.3025	14.2100
C	-2.3025	-3.1691	16.3415
C	-3.1691	-2.3025	17.0520
C	-2.3025	-3.1691	19.1835
C	-3.1691	-2.3025	18.4730
C	-2.3025	-3.1691	20.6045
C	-3.1691	-2.3025	21.3150
C	-2.3025	-3.1691	23.4465
C	-3.1691	-2.3025	22.7360
C	-2.3025	-3.1691	24.8675
C	-3.1691	-2.3025	25.5780
C	-2.3025	-3.1691	27.7095
C	-3.1691	-2.3025	26.9990
C	-2.3025	-3.1691	29.1305
C	-3.1691	-2.3025	29.8410
C	-2.3025	-3.1691	31.9725
C	-3.1691	-2.3025	31.2620
C	-2.3025	-3.1691	33.3935
C	-3.1691	-2.3025	34.1040
C	-2.3025	-3.1691	36.2355
C	-3.1691	-2.3025	35.5250
C	-2.3025	-3.1691	37.6565
C	-3.1691	-2.3025	38.3670
C	-3.1691	-2.3025	39.7880
C	-1.2105	-3.7255	0.0000
C	0.0000	-3.9172	2.1315
C	-1.2105	-3.7255	1.4210
C	0.0000	-3.9172	3.5525
C	-1.2105	-3.7255	4.2630
C	0.0000	-3.9172	6.3945
C	-1.2105	-3.7255	5.6840
C	0.0000	-3.9172	7.8155
C	-1.2105	-3.7255	8.5260
C	0.0000	-3.9172	10.6575
C	-1.2105	-3.7255	9.9470
C	0.0000	-3.9172	12.0785
C	-1.2105	-3.7255	12.7890
C	0.0000	-3.9172	14.9205
C	-1.2105	-3.7255	14.2100
C	0.0000	-3.9172	16.3415
C	-1.2105	-3.7255	17.0520
C	0.0000	-3.9172	19.1835
C	-1.2105	-3.7255	18.4730
C	0.0000	-3.9172	20.6045
C	-1.2105	-3.7255	21.3150
C	0.0000	-3.9172	23.4465
C	-1.2105	-3.7255	22.7360
C	0.0000	-3.9172	24.8675
C	-1.2105	-3.7255	25.5780
C	0.0000	-3.9172	27.7095
C	-1.2105	-3.7255	26.9990
C	0.0000	-3.9172	29.1305
C	-1.2105	-3.7255	29.8410
C	0.0000	-3.9172	31.9725
C	-1.2105	-3.7255	31.2620
C	0.0000	-3.9172	33.3935
C	-1.2105	-3.7255	34.1040
C	0.0000	-3.9172	36.2355
C	-1.2105	-3.7255	35.5250
C	0.0000	-3.9172	37.6565
C	-1.2105	-3.7255	38.3670
C	-1.2105	-3.7255	39.7880
C	1.2105	-3.7255	0.0000
C	2.3025	-3.1691	2.1315
C	1.2105	-3.7255	1.4210
C	2.3025	-3.1691	3.5525
C	1.2105	-3.7255	4.2630
C	2.3025	-3.1691	6.3945
C	1.2105	-3.7255	5.6840
C	2.3025	-3.1691	7.8155
C	1.2105	-3.7255	8.5260
C	2.3025	-3.1691	10.6575
C	1.2105	-3.7255	9.9470
C	2.3025	-3.1691	12.0785
C	1.2105	-3.7255	12.7890
C	2.3025	-3.1691	14.9205
C	1.2105	-3.7255	14.2100
C	2.3025	-3.1691	16.3415
C	1.2105	-3.7255	17.0520
C	2.3025	-3.1691	19.1835
C	1.2105	-3.7255	18.4730
C	2.3025	-3.1691	20.6045
C	1.2105	-3.7255	21.3150
C	2.3025	-3.1691	23.4465
C	1.2105	-3.7255	22.7360
C	2.3025	-3.1691	24.8675
C	1.2105	-3.7255	25.5780
C	2.3025	-3.1691	27.7095
C	1.2105	-3.7255	26.9990
C	2.3025	-3.1691	29.1305
C	1.2105	-3.7255	29.8410
C	2.3025	-3.1691	31.9725
C	1.2105	-3.7255	31.2620
C	2.3025	-3.1691	33.3935
C	1.2105	-3.7255	34.1040
C	2.3025	-3.1691	36.2355
C	1.2105	-3.7255	35.5250
C	2.3025	-3.1691	37.6565
C	1.2105	-3.7255	38.3670
C	1.2105	-3.7255	39.7880
C	3.1691	-2.3025	0.0000
C	3.7255	-1.2105	2.1315
C	3.1691	-2.3025	1.4210
C	3.7255	-1.2105	3.5525
C	3.1691	-2.3025	4.2630
C	3.7255	-1.2105	6.3945
C	3.1691	-2.3025	5.6840
C	3.7255	-1.2105	7.8155
C	3.1691	-2.3025	8.5260
C	3.7255	-1.2105	10.6575
C	3.1691	-2.3025	9.9470
C	3.7255	-1.2105	12.0785
C	3.1691	-2.3025	12.7890
C	3.7255	-1.2105	14.9205
C	3.1691	-2.3025	14.2100
C	3.7255	-1.2105	16.3415
C	3.1691	-2.3025	17.0520
C	3.7255	-1.2105	19.1835
C	3.1691	-2.3025	18.4730
C	3.7255	-1.2105	20.6045
C	3.1691	-2.3025	21.3150
C	3.7255	-1.2105	23.4465
C	3.1691	-2.3025	22.7360
C	3.7255	-1.2105	24.8675
C	3.1691	-2.3025	25.5780
C	3.7255	-1.2105	27.7095
C	3.1691	-2.3025	26.9990
C	3.7255	-1.2105	29.1305
C	3.1691	-2.3025	29.8410
C	3.7255	-1.2105	31.9725
C	3.1691	-2.3025	31.2620
C	3.7255	-1.2105	33.3935
C	3.1691	-2.3025	34.1040
C	3.7255	-1.2105	36.2355
C	3.1691	-2.3025	35.5250
C	3.7255	-1.2105	37.6565
C	3.1691	-2.3025	38.3670
C	3.1691	-2.3025	39.7880
