420
G
C      6.7848000000    0.0000000000   22.1512000000
C      6.7476000000    0.7092000000   23.3818000000
C      6.7848000000    0.0000000000   24.6124000000
C      6.7848000000    0.0000000000   17.2287000000
C      6.7476000000    0.7092000000   18.4593000000
C      6.7848000000    0.0000000000   19.6900000000
C      6.4527000000    2.0966000000   20.9206000000
C      6.7476000000    0.7092000000   20.9206000000
C      6.1982000000    2.7596000000   22.1512000000
C      6.4527000000    2.0966000000   23.3818000000
C      5.4890000000    3.9880000000   24.6124000000
C      6.1982000000    2.7596000000   24.6124000000
C      6.7848000000    0.0000000000   12.3062000000
C      6.7476000000    0.7092000000   13.5368000000
C      6.7848000000    0.0000000000   14.7675000000
C      6.4527000000    2.0966000000   15.9981000000
C      6.7476000000    0.7092000000   15.9981000000
C      6.1982000000    2.7596000000   17.2287000000
C      6.4527000000    2.0966000000   18.4593000000
C      5.4890000000    3.9880000000   19.6900000000
C      6.1982000000    2.7596000000   19.6900000000
C      5.0421000000    4.5399000000   20.9206000000
C      5.4890000000    3.9880000000   22.1512000000
C      3.9880000000    5.4890000000   23.3818000000
C      5.0421000000    4.5399000000   23.3818000000
C      3.3924000000    5.8758000000   24.6124000000
C      6.7848000000    0.0000000000    7.3837000000
C      6.7476000000    0.7092000000    8.6144000000
C      6.7848000000    0.0000000000    9.8450000000
C      6.4527000000    2.0966000000   11.0756000000
C      6.7476000000    0.7092000000   11.0756000000
C      6.1982000000    2.7596000000   12.3062000000
C      6.4527000000    2.0966000000   13.5368000000
C      5.4890000000    3.9880000000   14.7675000000
C      6.1982000000    2.7596000000   14.7675000000
C      5.0421000000    4.5399000000   15.9981000000
C      5.4890000000    3.9880000000   17.2287000000
C      3.9880000000    5.4890000000   18.4593000000
C      5.0421000000    4.5399000000   18.4593000000
C      3.3924000000    5.8758000000   19.6900000000
C      3.9880000000    5.4890000000   20.9206000000
C      2.0966000000    6.4527000000   22.1512000000
C      3.3924000000    5.8758000000   22.1512000000
C      1.4106000000    6.6365000000   23.3818000000
C      2.0966000000    6.4527000000   24.6124000000
C      6.7848000000    0.0000000000    2.4612000000
C      6.7476000000    0.7092000000    3.6919000000
C      6.7848000000    0.0000000000    4.9225000000
C      6.4527000000    2.0966000000    6.1531000000
C      6.7476000000    0.7092000000    6.1531000000
C      6.1982000000    2.7596000000    7.3837000000
C      6.4527000000    2.0966000000    8.6144000000
C      5.4890000000    3.9880000000    9.8450000000
C      6.1982000000    2.7596000000    9.8450000000
C      5.0421000000    4.5399000000   11.0756000000
C      5.4890000000    3.9880000000   12.3062000000
C      3.9880000000    5.4890000000   13.5368000000
C      5.0421000000    4.5399000000   13.5368000000
C      3.3924000000    5.8758000000   14.7675000000
C      3.9880000000    5.4890000000   15.9981000000
C      2.0966000000    6.4527000000   17.2287000000
C      3.3924000000    5.8758000000   17.2287000000
C      1.4106000000    6.6365000000   18.4593000000
C      2.0966000000    6.4527000000   19.6900000000
C      0.0000000000    6.7848000000   20.9206000000
C      1.4106000000    6.6365000000   20.9206000000
C     -0.7092000000    6.7476000000   22.1512000000
C      0.0000000000    6.7848000000   23.3818000000
C     -2.0966000000    6.4527000000   24.6124000000
C     -0.7092000000    6.7476000000   24.6124000000
C      6.7848000000    0.0000000000    0.0000000000
C      6.4527000000    2.0966000000    1.2306000000
C      6.7476000000    0.7092000000    1.2306000000
C      6.1982000000    2.7596000000    2.4612000000
C      6.4527000000    2.0966000000    3.6919000000
C      5.4890000000    3.9880000000    4.9225000000
C      6.1982000000    2.7596000000    4.9225000000
C      5.0421000000    4.5399000000    6.1531000000
C      5.4890000000    3.9880000000    7.3837000000
C      3.9880000000    5.4890000000    8.6144000000
C      5.0421000000    4.5399000000    8.6144000000
C      3.3924000000    5.8758000000    9.8450000000
C      3.9880000000    5.4890000000   11.0756000000
C      2.0966000000    6.4527000000   12.3062000000
C      3.3924000000    5.8758000000   12.3062000000
C      1.4106000000    6.6365000000   13.5368000000
C      2.0966000000    6.4527000000   14.7675000000
C      0.0000000000    6.7848000000   15.9981000000
C      1.4106000000    6.6365000000   15.9981000000
C     -0.7092000000    6.7476000000   17.2287000000
C      0.0000000000    6.7848000000   18.4593000000
C     -2.0966000000    6.4527000000   19.6900000000
C     -0.7092000000    6.7476000000   19.6900000000
C     -2.7596000000    6.1982000000   20.9206000000
C     -2.0966000000    6.4527000000   22.1512000000
C     -3.9880000000    5.4890000000   23.3818000000
C     -2.7596000000    6.1982000000   23.3818000000
C     -4.5399000000    5.0421000000   24.6124000000
C      5.4890000000    3.9880000000    0.0000000000
C      6.1982000000    2.7596000000    0.0000000000
C      5.0421000000    4.5399000000    1.2306000000
C      5.4890000000    3.9880000000    2.4612000000
C      3.9880000000    5.4890000000    3.6919000000
C      5.0421000000    4.5399000000    3.6919000000
C      3.3924000000    5.8758000000    4.9225000000
C      3.9880000000    5.4890000000    6.1531000000
C      2.0966000000    6.4527000000    7.3837000000
C      3.3924000000    5.8758000000    7.3837000000
C      1.4106000000    6.6365000000    8.6144000000
C      2.0966000000    6.4527000000    9.8450000000
C      0.0000000000    6.7848000000   11.0756000000
C      1.4106000000    6.6365000000   11.0756000000
C     -0.7092000000    6.7476000000   12.3062000000
C      0.0000000000    6.7848000000   13.5368000000
C     -2.0966000000    6.4527000000   14.7675000000
C     -0.7092000000    6.7476000000   14.7675000000
C     -2.7596000000    6.1982000000   15.9981000000
C     -2.0966000000    6.4527000000   17.2287000000
C     -3.9880000000    5.4890000000   18.4593000000
C     -2.7596000000    6.1982000000   18.4593000000
C     -4.5399000000    5.0421000000   19.6900000000
C     -3.9880000000    5.4890000000   20.9206000000
C     -5.4890000000    3.9880000000   22.1512000000
C     -4.5399000000    5.0421000000   22.1512000000
C     -5.8758000000    3.3924000000   23.3818000000
C     -5.4890000000    3.9880000000   24.6124000000
C      3.3924000000    5.8758000000    0.0000000000
C      3.9880000000    5.4890000000    1.2306000000
C      2.0966000000    6.4527000000    2.4612000000
C      3.3924000000    5.8758000000    2.4612000000
C      1.4106000000    6.6365000000    3.6919000000
C      2.0966000000    6.4527000000    4.9225000000
C      0.0000000000    6.7848000000    6.1531000000
C      1.4106000000    6.6365000000    6.1531000000
C     -0.7092000000    6.7476000000    7.3837000000
C      0.0000000000    6.7848000000    8.6144000000
C     -2.0966000000    6.4527000000    9.8450000000
C     -0.7092000000    6.7476000000    9.8450000000
C     -2.7596000000    6.1982000000   11.0756000000
C     -2.0966000000    6.4527000000   12.3062000000
C     -3.9880000000    5.4890000000   13.5368000000
C     -2.7596000000    6.1982000000   13.5368000000
C     -4.5399000000    5.0421000000   14.7675000000
C     -3.9880000000    5.4890000000   15.9981000000
C     -5.4890000000    3.9880000000   17.2287000000
C     -4.5399000000    5.0421000000   17.2287000000
C     -5.8758000000    3.3924000000   18.4593000000
C     -5.4890000000    3.9880000000   19.6900000000
C     -6.4527000000    2.0966000000   20.9206000000
C     -5.8758000000    3.3924000000   20.9206000000
C     -6.6365000000    1.4106000000   22.1512000000
C     -6.4527000000    2.0966000000   23.3818000000
C     -6.7848000000    0.0000000000   24.6124000000
C     -6.6365000000    1.4106000000   24.6124000000
C      2.0966000000    6.4527000000    0.0000000000
C      0.0000000000    6.7848000000    1.2306000000
C      1.4106000000    6.6365000000    1.2306000000
C     -0.7092000000    6.7476000000    2.4612000000
C      0.0000000000    6.7848000000    3.6919000000
C     -2.0966000000    6.4527000000    4.9225000000
C     -0.7092000000    6.7476000000    4.9225000000
C     -2.7596000000    6.1982000000    6.1531000000
C     -2.0966000000    6.4527000000    7.3837000000
C     -3.9880000000    5.4890000000    8.6144000000
C     -2.7596000000    6.1982000000    8.6144000000
C     -4.5399000000    5.0421000000    9.8450000000
C     -3.9880000000    5.4890000000   11.0756000000
C     -5.4890000000    3.9880000000   12.3062000000
C     -4.5399000000    5.0421000000   12.3062000000
C     -5.8758000000    3.3924000000   13.5368000000
C     -5.4890000000    3.9880000000   14.7675000000
C     -6.4527000000    2.0966000000   15.9981000000
C     -5.8758000000    3.3924000000   15.9981000000
C     -6.6365000000    1.4106000000   17.2287000000
C     -6.4527000000    2.0966000000   18.4593000000
C     -6.7848000000    0.0000000000   19.6900000000
C     -6.6365000000    1.4106000000   19.6900000000
C     -6.7476000000   -0.7092000000   20.9206000000
C     -6.7848000000    0.0000000000   22.1512000000
C     -6.4527000000   -2.0966000000   23.3818000000
C     -6.7476000000   -0.7092000000   23.3818000000
C     -6.1982000000   -2.7596000000   24.6124000000
C     -2.0966000000    6.4527000000    0.0000000000
C     -0.7092000000    6.7476000000    0.0000000000
C     -2.7596000000    6.1982000000    1.2306000000
C     -2.0966000000    6.4527000000    2.4612000000
C     -3.9880000000    5.4890000000    3.6919000000
C     -2.7596000000    6.1982000000    3.6919000000
C     -4.5399000000    5.0421000000    4.9225000000
C     -3.9880000000    5.4890000000    6.1531000000
C     -5.4890000000    3.9880000000    7.3837000000
C     -4.5399000000    5.0421000000    7.3837000000
C     -5.8758000000    3.3924000000    8.6144000000
C     -5.4890000000    3.9880000000    9.8450000000
C     -6.4527000000    2.0966000000   11.0756000000
C     -5.8758000000    3.3924000000   11.0756000000
C     -6.6365000000    1.4106000000   12.3062000000
C     -6.4527000000    2.0966000000   13.5368000000
C     -6.7848000000    0.0000000000   14.7675000000
C     -6.6365000000    1.4106000000   14.7675000000
C     -6.7476000000   -0.7092000000   15.9981000000
C     -6.7848000000    0.0000000000   17.2287000000
C     -6.4527000000   -2.0966000000   18.4593000000
C     -6.7476000000   -0.7092000000   18.4593000000
C     -6.1982000000   -2.7596000000   19.6900000000
C     -6.4527000000   -2.0966000000   20.9206000000
C     -5.4890000000   -3.9880000000   22.1512000000
C     -6.1982000000   -2.7596000000   22.1512000000
C     -5.0421000000   -4.5399000000   23.3818000000
C     -5.4890000000   -3.9880000000   24.6124000000
C     -4.5399000000    5.0421000000    0.0000000000
C     -3.9880000000    5.4890000000    1.2306000000
C     -5.4890000000    3.9880000000    2.4612000000
C     -4.5399000000    5.0421000000    2.4612000000
C     -5.8758000000    3.3924000000    3.6919000000
C     -5.4890000000    3.9880000000    4.9225000000
C     -6.4527000000    2.0966000000    6.1531000000
C     -5.8758000000    3.3924000000    6.1531000000
C     -6.6365000000    1.4106000000    7.3837000000
C     -6.4527000000    2.0966000000    8.6144000000
C     -6.7848000000    0.0000000000    9.8450000000
C     -6.6365000000    1.4106000000    9.8450000000
C     -6.7476000000   -0.7092000000   11.0756000000
C     -6.7848000000    0.0000000000   12.3062000000
C     -6.4527000000   -2.0966000000   13.5368000000
C     -6.7476000000   -0.7092000000   13.5368000000
C     -6.1982000000   -2.7596000000   14.7675000000
C     -6.4527000000   -2.0966000000   15.9981000000
C     -5.4890000000   -3.9880000000   17.2287000000
C     -6.1982000000   -2.7596000000   17.2287000000
C     -5.0421000000   -4.5399000000   18.4593000000
C     -5.4890000000   -3.9880000000   19.6900000000
C     -3.9880000000   -5.4890000000   20.9206000000
C     -5.0421000000   -4.5399000000   20.9206000000
C     -3.3924000000   -5.8758000000   22.1512000000
C     -3.9880000000   -5.4890000000   23.3818000000
C     -2.0966000000   -6.4527000000   24.6124000000
C     -3.3924000000   -5.8758000000   24.6124000000
C     -5.4890000000    3.9880000000    0.0000000000
C     -6.4527000000    2.0966000000    1.2306000000
C     -5.8758000000    3.3924000000    1.2306000000
C     -6.6365000000    1.4106000000    2.4612000000
C     -6.4527000000    2.0966000000    3.6919000000
C     -6.7848000000    0.0000000000    4.9225000000
C     -6.6365000000    1.4106000000    4.9225000000
C     -6.7476000000   -0.7092000000    6.1531000000
C     -6.7848000000    0.0000000000    7.3837000000
C     -6.4527000000   -2.0966000000    8.6144000000
C     -6.7476000000   -0.7092000000    8.6144000000
C     -6.1982000000   -2.7596000000    9.8450000000
C     -6.4527000000   -2.0966000000   11.0756000000
C     -5.4890000000   -3.9880000000   12.3062000000
C     -6.1982000000   -2.7596000000   12.3062000000
C     -5.0421000000   -4.5399000000   13.5368000000
C     -5.4890000000   -3.9880000000   14.7675000000
C     -3.9880000000   -5.4890000000   15.9981000000
C     -5.0421000000   -4.5399000000   15.9981000000
C     -3.3924000000   -5.8758000000   17.2287000000
C     -3.9880000000   -5.4890000000   18.4593000000
C     -2.0966000000   -6.4527000000   19.6900000000
C     -3.3924000000   -5.8758000000   19.6900000000
C     -1.4106000000   -6.6365000000   20.9206000000
C     -2.0966000000   -6.4527000000   22.1512000000
C      0.0000000000   -6.7848000000   23.3818000000
C     -1.4106000000   -6.6365000000   23.3818000000
C      0.7092000000   -6.7476000000   24.6124000000
C     -6.7848000000    0.0000000000    0.0000000000
C     -6.6365000000    1.4106000000    0.0000000000
C     -6.7476000000   -0.7092000000    1.2306000000
C     -6.7848000000    0.0000000000    2.4612000000
C     -6.4527000000   -2.0966000000    3.6919000000
C     -6.7476000000   -0.7092000000    3.6919000000
C     -6.1982000000   -2.7596000000    4.9225000000
C     -6.4527000000   -2.0966000000    6.1531000000
C     -5.4890000000   -3.9880000000    7.3837000000
C     -6.1982000000   -2.7596000000    7.3837000000
C     -5.0421000000   -4.5399000000    8.6144000000
C     -5.4890000000   -3.9880000000    9.8450000000
C     -3.9880000000   -5.4890000000   11.0756000000
C     -5.0421000000   -4.5399000000   11.0756000000
C     -3.3924000000   -5.8758000000   12.3062000000
C     -3.9880000000   -5.4890000000   13.5368000000
C     -2.0966000000   -6.4527000000   14.7675000000
C     -3.3924000000   -5.8758000000   14.7675000000
C     -1.4106000000   -6.6365000000   15.9981000000
C     -2.0966000000   -6.4527000000   17.2287000000
C      0.0000000000   -6.7848000000   18.4593000000
C     -1.4106000000   -6.6365000000   18.4593000000
C      0.7092000000   -6.7476000000   19.6900000000
C      0.0000000000   -6.7848000000   20.9206000000
C      2.0966000000   -6.4527000000   22.1512000000
C      0.7092000000   -6.7476000000   22.1512000000
C      2.7596000000   -6.1982000000   23.3818000000
C      2.0966000000   -6.4527000000   24.6124000000
C     -6.1982000000   -2.7596000000    0.0000000000
C     -6.4527000000   -2.0966000000    1.2306000000
C     -5.4890000000   -3.9880000000    2.4612000000
C     -6.1982000000   -2.7596000000    2.4612000000
C     -5.0421000000   -4.5399000000    3.6919000000
C     -5.4890000000   -3.9880000000    4.9225000000
C     -3.9880000000   -5.4890000000    6.1531000000
C     -5.0421000000   -4.5399000000    6.1531000000
C     -3.3924000000   -5.8758000000    7.3837000000
C     -3.9880000000   -5.4890000000    8.6144000000
C     -2.0966000000   -6.4527000000    9.8450000000
C     -3.3924000000   -5.8758000000    9.8450000000
C     -1.4106000000   -6.6365000000   11.0756000000
C     -2.0966000000   -6.4527000000   12.3062000000
C      0.0000000000   -6.7848000000   13.5368000000
C     -1.4106000000   -6.6365000000   13.5368000000
C      0.7092000000   -6.7476000000   14.7675000000
C      0.0000000000   -6.7848000000   15.9981000000
C      2.0966000000   -6.4527000000   17.2287000000
C      0.7092000000   -6.7476000000   17.2287000000
C      2.7596000000   -6.1982000000   18.4593000000
C      2.0966000000   -6.4527000000   19.6900000000
C      3.9880000000   -5.4890000000   20.9206000000
C      2.7596000000   -6.1982000000   20.9206000000
C      4.5399000000   -5.0421000000   22.1512000000
C      3.9880000000   -5.4890000000   23.3818000000
C      5.4890000000   -3.9880000000   24.6124000000
C      4.5399000000   -5.0421000000   24.6124000000
C     -5.4890000000   -3.9880000000    0.0000000000
C     -3.9880000000   -5.4890000000    1.2306000000
C     -5.0421000000   -4.5399000000    1.2306000000
C     -3.3924000000   -5.8758000000    2.4612000000
C     -3.9880000000   -5.4890000000    3.6919000000
C     -2.0966000000   -6.4527000000    4.9225000000
C     -3.3924000000   -5.8758000000    4.9225000000
C     -1.4106000000   -6.6365000000    6.1531000000
C     -2.0966000000   -6.4527000000    7.3837000000
C      0.0000000000   -6.7848000000    8.6144000000
C     -1.4106000000   -6.6365000000    8.6144000000
C      0.7092000000   -6.7476000000    9.8450000000
C      0.0000000000   -6.7848000000   11.0756000000
C      2.0966000000   -6.4527000000   12.3062000000
C      0.7092000000   -6.7476000000   12.3062000000
C      2.7596000000   -6.1982000000   13.5368000000
C      2.0966000000   -6.4527000000   14.7675000000
C      3.9880000000   -5.4890000000   15.9981000000
C      2.7596000000   -6.1982000000   15.9981000000
C      4.5399000000   -5.0421000000   17.2287000000
C      3.9880000000   -5.4890000000   18.4593000000
C      5.4890000000   -3.9880000000   19.6900000000
C      4.5399000000   -5.0421000000   19.6900000000
C      5.8758000000   -3.3924000000   20.9206000000
C      5.4890000000   -3.9880000000   22.1512000000
C      6.4527000000   -2.0966000000   23.3818000000
C      5.8758000000   -3.3924000000   23.3818000000
C      6.6365000000   -1.4106000000   24.6124000000
C     -2.0966000000   -6.4527000000    0.0000000000
C     -3.3924000000   -5.8758000000    0.0000000000
C     -1.4106000000   -6.6365000000    1.2306000000
C     -2.0966000000   -6.4527000000    2.4612000000
C      0.0000000000   -6.7848000000    3.6919000000
C     -1.4106000000   -6.6365000000    3.6919000000
C      0.7092000000   -6.7476000000    4.9225000000
C      0.0000000000   -6.7848000000    6.1531000000
C      2.0966000000   -6.4527000000    7.3837000000
C      0.7092000000   -6.7476000000    7.3837000000
C      2.7596000000   -6.1982000000    8.6144000000
C      2.0966000000   -6.4527000000    9.8450000000
C      3.9880000000   -5.4890000000   11.0756000000
C      2.7596000000   -6.1982000000   11.0756000000
C      4.5399000000   -5.0421000000   12.3062000000
C      3.9880000000   -5.4890000000   13.5368000000
C      5.4890000000   -3.9880000000   14.7675000000
C      4.5399000000   -5.0421000000   14.7675000000
C      5.8758000000   -3.3924000000   15.9981000000
C      5.4890000000   -3.9880000000   17.2287000000
C      6.4527000000   -2.0966000000   18.4593000000
C      5.8758000000   -3.3924000000   18.4593000000
C      6.6365000000   -1.4106000000   19.6900000000
C      6.4527000000   -2.0966000000   20.9206000000
C      6.6365000000   -1.4106000000   22.1512000000
C      0.7092000000   -6.7476000000    0.0000000000
C      0.0000000000   -6.7848000000    1.2306000000
C      2.0966000000   -6.4527000000    2.4612000000
C      0.7092000000   -6.7476000000    2.4612000000
C      2.7596000000   -6.1982000000    3.6919000000
C      2.0966000000   -6.4527000000    4.9225000000
C      3.9880000000   -5.4890000000    6.1531000000
C      2.7596000000   -6.1982000000    6.1531000000
C      4.5399000000   -5.0421000000    7.3837000000
C      3.9880000000   -5.4890000000    8.6144000000
C      5.4890000000   -3.9880000000    9.8450000000
C      4.5399000000   -5.0421000000    9.8450000000
C      5.8758000000   -3.3924000000   11.0756000000
C      5.4890000000   -3.9880000000   12.3062000000
C      6.4527000000   -2.0966000000   13.5368000000
C      5.8758000000   -3.3924000000   13.5368000000
C      6.6365000000   -1.4106000000   14.7675000000
C      6.4527000000   -2.0966000000   15.9981000000
C      6.6365000000   -1.4106000000   17.2287000000
C      2.0966000000   -6.4527000000    0.0000000000
C      3.9880000000   -5.4890000000    1.2306000000
C      2.7596000000   -6.1982000000    1.2306000000
C      4.5399000000   -5.0421000000    2.4612000000
C      3.9880000000   -5.4890000000    3.6919000000
C      5.4890000000   -3.9880000000    4.9225000000
C      4.5399000000   -5.0421000000    4.9225000000
C      5.8758000000   -3.3924000000    6.1531000000
C      5.4890000000   -3.9880000000    7.3837000000
C      6.4527000000   -2.0966000000    8.6144000000
C      5.8758000000   -3.3924000000    8.6144000000
C      6.6365000000   -1.4106000000    9.8450000000
C      6.4527000000   -2.0966000000   11.0756000000
C      6.6365000000   -1.4106000000   12.3062000000
C      5.4890000000   -3.9880000000    0.0000000000
C      4.5399000000   -5.0421000000    0.0000000000
C      5.8758000000   -3.3924000000    1.2306000000
C      5.4890000000   -3.9880000000    2.4612000000
C      6.4527000000   -2.0966000000    3.6919000000
C      5.8758000000   -3.3924000000    3.6919000000
C      6.6365000000   -1.4106000000    4.9225000000
C      6.4527000000   -2.0966000000    6.1531000000
C      6.6365000000   -1.4106000000    7.3837000000
C      6.6365000000   -1.4106000000    0.0000000000
C      6.4527000000   -2.0966000000    1.2306000000
C      6.6365000000   -1.4106000000    2.4612000000
